61
Coordinates from ORCA-job minEg_row2_A7_H4 E -1305.905971513628
  O      -8.101642      0.231349     -0.886992
  C      -7.277339     -0.618043     -0.594365
  N      -7.106912     -1.796039     -1.242399
  C      -6.034083     -2.501366     -0.808165
  O      -5.601954     -3.517970     -1.322899
  C      -5.472471     -1.828521      0.420049
  C      -3.961213     -1.636003      0.320939
  C      -3.473370     -0.638456      1.369734
  C      -2.022302     -0.286147      1.157887
  O      -1.125426     -1.114684      1.120663
  N      -1.905854      1.063623      0.979241
  C      -0.662753      1.745710      0.607651
  C       0.487054      1.501460      1.603580
  C       1.641595      0.696660      1.012564
  C       2.218357      1.337619     -0.263079
  C       3.063104      0.326003     -1.071579
  C       4.257117     -0.301469     -0.319240
  C       5.293993      0.752585      0.103745
  C       6.520614      0.122541      0.760820
  C       7.152664     -0.945479     -0.123702
  C       6.133055     -2.003660     -0.529095
  C       4.915264     -1.377257     -1.203133
  C       1.123911      1.962033     -1.156312
  C      -0.270858      1.432936     -0.844999
  C      -3.126256      1.674048      0.877665
  O      -3.343870      2.816969      0.503779
  C      -4.199092      0.705306      1.306349
  C      -5.395213      0.730746      0.355373
  C      -6.263642     -0.514425      0.518527
  H      -7.632081     -2.047003     -2.066130
  H      -5.711313     -2.461968      1.283596
  H      -3.454455     -2.601138      0.452637
  H      -3.681696     -1.297291     -0.687290
  H      -3.578932     -1.068342      2.373729
  H      -0.880351      2.821283      0.655455
  H       0.884886      2.474885      1.919353
  H       0.126292      1.018173      2.518424
  H       1.302026     -0.323525      0.799524
  H       2.431602      0.605446      1.768517
  H       2.876462      2.163054      0.035986
  H       3.442171      0.823069     -1.974855
  H       2.402505     -0.479534     -1.419715
  H       3.885313     -0.802919      0.583570
  H       4.851785      1.461267      0.812224
  H       5.611698      1.331485     -0.772815
  H       6.229760     -0.322564      1.720667
  H       7.260036      0.901090      0.982103
  H       7.570462     -0.477196     -1.023631
  H       7.986572     -1.418149      0.407303
  H       5.811948     -2.562994      0.358896
  H       6.601050     -2.723959     -1.210097
  H       4.188001     -2.166098     -1.431665
  H       5.220832     -0.938326     -2.161980
  H       1.345215      1.811589     -2.219212
  H       1.124399      3.049272     -1.000848
  H      -0.302618      0.354425     -1.041291
  H      -1.000434      1.886774     -1.526681
  H      -4.521128      0.993837      2.315394
  H      -5.995707      1.631557      0.540597
  H      -5.055704      0.821768     -0.686528
  H      -6.801070     -0.478038      1.474617
61
Coordinates from ORCA-job minEg_row2_A7_H4 E -1305.913788445547
  O      -8.186545      0.225361     -0.845091
  C      -7.357054     -0.609413     -0.557480
  N      -7.187934     -1.814351     -1.200951
  C      -6.109450     -2.548422     -0.762014
  O      -5.707475     -3.573409     -1.266917
  C      -5.514141     -1.837184      0.442088
  C      -3.997861     -1.658605      0.315479
  C      -3.494424     -0.651952      1.353170
  C      -2.031136     -0.308331      1.128498
  O      -1.126980     -1.117016      1.102748
  N      -1.911299      1.053929      0.933087
  C      -0.662741      1.743396      0.571042
  C       0.485348      1.501921      1.580957
  C       1.652263      0.703096      0.995837
  C       2.249530      1.359748     -0.263099
  C       3.111344      0.365570     -1.069050
  C       4.297271     -0.282527     -0.328268
  C       5.338478      0.748921      0.135478
  C       6.555999      0.094435      0.798873
  C       7.197283     -0.963661     -0.099464
  C       6.170565     -2.003574     -0.549999
  C       4.960690     -1.346067     -1.221401
  C       1.145892      1.984246     -1.159959
  C      -0.248945      1.427831     -0.872405
  C      -3.140631      1.686762      0.866043
  O      -3.326247      2.835189      0.524492
  C      -4.224104      0.708291      1.287001
  C      -5.431373      0.739953      0.342631
  C      -6.306382     -0.502869      0.535282
  H      -7.732518     -2.077243     -2.011140
  H      -5.731210     -2.456709      1.317090
  H      -3.493829     -2.616177      0.443047
  H      -3.738629     -1.320514     -0.692376
  H      -3.585388     -1.087309      2.352255
  H      -0.913785      2.803929      0.609083
  H       0.864888      2.474770      1.909026
  H       0.112424      1.008566      2.480252
  H       1.314204     -0.310080      0.764745
  H       2.426753      0.600924      1.759843
  H       2.897644      2.181226      0.057983
  H       3.500418      0.880001     -1.955300
  H       2.456474     -0.430954     -1.443252
  H       3.913934     -0.799973      0.558512
  H       4.888942      1.451468      0.842657
  H       5.671290      1.339024     -0.727168
  H       6.246098     -0.370814      1.741935
  H       7.293105      0.861130      1.057207
  H       7.631441     -0.477453     -0.981039
  H       8.022133     -1.452820      0.427880
  H       5.833318     -2.580555      0.318840
  H       6.637299     -2.715258     -1.238077
  H       4.226272     -2.114736     -1.482282
  H       5.279118     -0.883140     -2.163327
  H       1.382922      1.838232     -2.216146
  H       1.125451      3.069324     -1.006969
  H      -0.260514      0.348875     -1.050521
  H      -0.978947      1.863888     -1.559941
  H      -4.545642      1.002594      2.290778
  H      -6.019181      1.641023      0.514848
  H      -5.097008      0.804618     -0.696679
  H      -6.827416     -0.437123      1.494091
61
Coordinates from ORCA-job minEg_row2_A7_H4 E -1305.915805775029
  O      -8.273240      0.239811     -0.738383
  C      -7.430027     -0.582076     -0.486054
  N      -7.289094     -1.804701     -1.128180
  C      -6.201196     -2.562230     -0.716538
  O      -5.859480     -3.608163     -1.205993
  C      -5.554115     -1.832432      0.457656
  C      -4.039548     -1.666864      0.278011
  C      -3.501013     -0.672537      1.313860
  C      -2.032209     -0.343117      1.065703
  O      -1.126014     -1.140207      1.029289
  N      -1.907337      1.027073      0.868509
  C      -0.656205      1.723871      0.517664
  C       0.482889      1.485922      1.543224
  C       1.659101      0.693808      0.964820
  C       2.276322      1.367960     -0.276548
  C       3.157469      0.394525     -1.079013
  C       4.331153     -0.263711     -0.336710
  C       5.362208      0.755303      0.172432
  C       6.561144      0.085633      0.856935
  C       7.226490     -0.957075     -0.045839
  C       6.208527     -1.984681     -0.549808
  C       5.015128     -1.308113     -1.234155
  C       1.171853      1.986389     -1.181600
  C      -0.217391      1.400218     -0.916726
  C      -3.136969      1.684574      0.861898
  O      -3.295289      2.847058      0.582501
  C      -4.223333      0.696746      1.272420
  C      -5.441417      0.744236      0.340652
  C      -6.329874     -0.487005      0.567569
  H      -7.876393     -2.077369     -1.904575
  H      -5.738026     -2.444655      1.344751
  H      -3.537130     -2.626478      0.377935
  H      -3.818059     -1.309996     -0.731310
  H      -3.571043     -1.124963      2.305826
  H      -0.937216      2.775586      0.546420
  H       0.844464      2.460344      1.883477
  H       0.094621      0.980439      2.427744
  H       1.319808     -0.313466      0.713622
  H       2.419747      0.577850      1.739533
  H       2.909853      2.191023      0.067416
  H       3.559064      0.927754     -1.948842
  H       2.513624     -0.398099     -1.479902
  H       3.932713     -0.799836      0.533352
  H       4.893645      1.453683      0.870714
  H       5.718595      1.353931     -0.675441
  H       6.222860     -0.400157      1.779704
  H       7.288504      0.844951      1.157682
  H       7.683989     -0.451708     -0.904599
  H       8.038696     -1.457451      0.488850
  H       5.847928     -2.580148      0.296879
  H       6.687922     -2.684895     -1.239479
  H       4.283399     -2.063133     -1.536627
  H       5.356925     -0.818539     -2.154590
  H       1.429225      1.844326     -2.233391
  H       1.128186      3.069432     -1.028595
  H      -0.203885      0.318935     -1.071886
  H      -0.947047      1.814094     -1.616588
  H      -4.538111      0.983537      2.279721
  H      -6.012545      1.654657      0.507741
  H      -5.115225      0.779893     -0.701734
  H      -6.817619     -0.399761      1.541061
61
Coordinates from ORCA-job minEg_row2_A7_H4 E -1305.916179801980
  O      -8.299536      0.273114     -0.675376
  C      -7.461013     -0.556398     -0.439007
  N      -7.332899     -1.773512     -1.098767
  C      -6.257596     -2.556347     -0.693922
  O      -5.936620     -3.602052     -1.194676
  C      -5.577034     -1.827200      0.463300
  C      -4.065638     -1.668659      0.249415
  C      -3.499763     -0.692021      1.289128
  C      -2.032816     -0.369446      1.020534
  O      -1.127884     -1.166121      0.964583
  N      -1.906016      1.003205      0.832034
  C      -0.655281      1.703917      0.484321
  C       0.479169      1.473779      1.517952
  C       1.661562      0.687209      0.945843
  C       2.283399      1.366315     -0.290889
  C       3.176729      0.401231     -1.088052
  C       4.347184     -0.252765     -0.338931
  C       5.371682      0.767679      0.180570
  C       6.558965      0.098276      0.883374
  C       7.237448     -0.943461     -0.010683
  C       6.227256     -1.970566     -0.531074
  C       5.043727     -1.293624     -1.230106
  C       1.178628      1.974592     -1.202765
  C      -0.204810      1.372095     -0.945432
  C      -3.129771      1.674752      0.886241
  O      -3.279959      2.848249      0.654477
  C      -4.214914      0.678725      1.279775
  C      -5.436624      0.743430      0.354120
  C      -6.336516     -0.478220      0.591612
  H      -7.934359     -2.036432     -1.867552
  H      -5.741709     -2.439966      1.354070
  H      -3.566140     -2.632736      0.323269
  H      -3.868090     -1.293831     -0.758557
  H      -3.552704     -1.161973      2.274383
  H      -0.948310      2.753086      0.506257
  H       0.829907      2.451237      1.861071
  H       0.085093      0.964137      2.397798
  H       1.324848     -0.319841      0.689732
  H       2.417512      0.570314      1.725446
  H       2.906538      2.194653      0.060015
  H       3.581584      0.939606     -1.953729
  H       2.541066     -0.394519     -1.496349
  H       3.944581     -0.791051      0.528584
  H       4.893606      1.472289      0.866000
  H       5.740835      1.360410     -0.666435
  H       6.205435     -0.389465      1.799593
  H       7.281113      0.857037      1.197807
  H       7.706875     -0.436590     -0.862324
  H       8.042775     -1.444094      0.533994
  H       5.854952     -2.567412      0.309887
  H       6.715641     -2.670654     -1.214576
  H       4.316300     -2.046541     -1.548232
  H       5.398459     -0.798428     -2.142997
  H       1.446029      1.833654     -2.252618
  H       1.120760      3.056951     -1.050695
  H      -0.176031      0.289387     -1.085518
  H      -0.934984      1.770852     -1.653657
  H      -4.527095      0.948612      2.292905
  H      -5.995848      1.661498      0.523254
  H      -5.113859      0.768429     -0.689957
  H      -6.805834     -0.384795      1.573991
61
Coordinates from ORCA-job minEg_row2_A7_H4 E -1305.916385757402
  O      -8.323102      0.299599     -0.609367
  C      -7.478017     -0.531352     -0.401749
  N      -7.370761     -1.745330     -1.070496
  C      -6.301578     -2.544224     -0.681912
  O      -6.017432     -3.604938     -1.173888
  C      -5.593125     -1.823188      0.463512
  C      -4.085630     -1.672469      0.218509
  C      -3.492301     -0.712756      1.259893
  C      -2.031134     -0.391608      0.964799
  O      -1.126886     -1.188242      0.886438
  N      -1.905333      0.982600      0.791425
  C      -0.655680      1.688732      0.449564
  C       0.472957      1.465782      1.491954
  C       1.662844      0.685879      0.927938
  C       2.288514      1.368632     -0.304833
  C       3.192392      0.409054     -1.096651
  C       4.358814     -0.241711     -0.338759
  C       5.380463      0.779796      0.185214
  C       6.554867      0.109953      0.906790
  C       7.241911     -0.935781      0.024613
  C       6.236385     -1.961565     -0.506066
  C       5.064146     -1.284032     -1.221314
  C       1.185795      1.969299     -1.223904
  C      -0.193163      1.353576     -0.976288
  C      -3.120574      1.661766      0.912520
  O      -3.265578      2.847521      0.745472
  C      -4.202051      0.657185      1.289483
  C      -5.428251      0.742693      0.371867
  C      -6.336998     -0.471797      0.611628
  H      -7.997272     -2.006803     -1.819453
  H      -5.740710     -2.439469      1.355387
  H      -3.591085     -2.641077      0.268351
  H      -3.908740     -1.283449     -0.787966
  H      -3.522908     -1.200724      2.237795
  H      -0.956519      2.736187      0.467720
  H       0.813194      2.445695      1.838986
  H       0.073275      0.952214      2.367438
  H       1.331006     -0.322174      0.668482
  H       2.414329      0.570622      1.712383
  H       2.902927      2.201223      0.051926
  H       3.601027      0.950353     -1.958942
  H       2.563337     -0.389028     -1.510869
  H       3.951884     -0.777891      0.528272
  H       4.896619      1.493967      0.856617
  H       5.762781      1.362687     -0.663017
  H       6.186451     -0.375107      1.818698
  H       7.275079      0.867098      1.229825
  H       7.723799     -0.432428     -0.822311
  H       8.038927     -1.437285      0.580804
  H       5.851966     -2.555366      0.331813
  H       6.731654     -2.665046     -1.181348
  H       4.339684     -2.035086     -1.550892
  H       5.431995     -0.788441     -2.129012
  H       1.463219      1.832803     -2.271927
  H       1.116160      3.050687     -1.069264
  H      -0.152094      0.270489     -1.107631
  H      -0.921694      1.742185     -1.692030
  H      -4.510815      0.905565      2.309544
  H      -5.976271      1.666431      0.549387
  H      -5.110564      0.766368     -0.673947
  H      -6.792137     -0.378271      1.601253
61
Coordinates from ORCA-job minEg_row2_A7_H4 E -1305.916482947978
  O      -8.306808      0.310678     -0.619885
  C      -7.466479     -0.525382     -0.408597
  N      -7.357577     -1.734387     -1.082498
  C      -6.302510     -2.542678     -0.681020
  O      -6.024273     -3.608353     -1.167623
  C      -5.592818     -1.824466      0.464311
  C      -4.084998     -1.678354      0.217506
  C      -3.485080     -0.721317      1.258038
  C      -2.028343     -0.395164      0.951673
  O      -1.123781     -1.191268      0.860753
  N      -1.906698      0.978482      0.782884
  C      -0.659303      1.687937      0.440613
  C       0.468355      1.471062      1.485617
  C       1.661573      0.693538      0.925910
  C       2.286018      1.373553     -0.308847
  C       3.189787      0.411635     -1.098969
  C       4.355423     -0.237972     -0.338484
  C       5.381458      0.783807      0.177310
  C       6.551848      0.113938      0.904766
  C       7.235126     -0.940203      0.030029
  C       6.226028     -1.965072     -0.494789
  C       5.057489     -1.287515     -1.215545
  C       1.183763      1.971605     -1.229473
  C      -0.193778      1.352062     -0.984181
  C      -3.116688      1.656582      0.940786
  O      -3.263413      2.846978      0.806980
  C      -4.196213      0.646278      1.303756
  C      -5.418623      0.741077      0.381475
  C      -6.332086     -0.471618      0.611188
  H      -7.983643     -1.994229     -1.832319
  H      -5.740931     -2.440566      1.356185
  H      -3.594219     -2.648995      0.265694
  H      -3.907993     -1.290458     -0.789410
  H      -3.504538     -1.215084      2.233420
  H      -0.961245      2.735091      0.457776
  H       0.804472      2.452646      1.832032
  H       0.068243      0.958181      2.361570
  H       1.333130     -0.316614      0.669600
  H       2.412915      0.583221      1.711154
  H       2.899984      2.207377      0.045947
  H       3.598390      0.950340     -1.962779
  H       2.560132     -0.387080     -1.510948
  H       3.948665     -0.767664      0.532390
  H       4.900768      1.506512      0.841943
  H       5.767015      1.357314     -0.675774
  H       6.180238     -0.363930      1.819155
  H       7.275674      0.869609      1.223332
  H       7.720463     -0.444699     -0.819540
  H       8.028945     -1.441953      0.590732
  H       5.838373     -2.551844      0.346514
  H       6.719497     -2.674725     -1.165065
  H       4.331127     -2.037947     -1.542482
  H       5.428212     -0.798271     -2.125500
  H       1.463477      1.838205     -2.277196
  H       1.110971      3.052569     -1.072262
  H      -0.149450      0.269175     -1.114893
  H      -0.921593      1.738497     -1.701882
  H      -4.511013      0.882429      2.324821
  H      -5.963582      1.666204      0.561517
  H      -5.096117      0.769314     -0.662816
  H      -6.793762     -0.378089      1.597862
61
Coordinates from ORCA-job minEg_row2_A7_H4 E -1305.916524822701
  O      -8.281470      0.310623     -0.660423
  C      -7.446975     -0.527900     -0.433873
  N      -7.334196     -1.740094     -1.099102
  C      -6.292675     -2.552084     -0.674221
  O      -6.016540     -3.626024     -1.144630
  C      -5.589088     -1.827286      0.470085
  C      -4.079797     -1.686259      0.228062
  C      -3.479102     -0.723764      1.263069
  C      -2.025771     -0.392001      0.947349
  O      -1.120083     -1.186612      0.851696
  N      -1.907904      0.981563      0.781936
  C      -0.662179      1.693949      0.441001
  C       0.465318      1.479397      1.487021
  C       1.660418      0.703326      0.929039
  C       2.284358      1.381796     -0.306865
  C       3.183842      0.416632     -1.098647
  C       4.348082     -0.236813     -0.339295
  C       5.379859      0.781836      0.171630
  C       6.548990      0.108554      0.898362
  C       7.225684     -0.951104      0.024968
  C       6.210795     -1.972612     -0.495467
  C       5.043713     -1.291422     -1.215704
  C       1.182691      1.983071     -1.225635
  C      -0.195012      1.362075     -0.983824
  C      -3.115452      1.656525      0.959428
  O      -3.264022      2.849106      0.847554
  C      -4.194323      0.642161      1.312307
  C      -5.409349      0.739376      0.379593
  C      -6.327208     -0.471359      0.601167
  H      -7.956141     -2.005612     -1.850369
  H      -5.742265     -2.436193      1.365767
  H      -3.592293     -2.657889      0.284998
  H      -3.897478     -1.307711     -0.781485
  H      -3.490746     -1.214942      2.239816
  H      -0.963903      2.740945      0.460512
  H       0.799770      2.461293      1.833979
  H       0.065532      0.966704      2.363243
  H       1.334213     -0.308002      0.674521
  H       2.411945      0.596034      1.714377
  H       2.901673      2.213781      0.046297
  H       3.593032      0.953803     -1.962966
  H       2.550523     -0.379672     -1.509525
  H       3.940960     -0.762954      0.533321
  H       4.904034      1.508357      0.835660
  H       5.765964      1.351527     -0.683635
  H       6.177439     -0.365225      1.814820
  H       7.277483      0.861413      1.212832
  H       7.712304     -0.460363     -0.826548
  H       8.017620     -1.455464      0.586012
  H       5.821953     -2.555482      0.347885
  H       6.700148     -2.685864     -1.164917
  H       4.313736     -2.039823     -1.539113
  H       5.414466     -0.806524     -2.127883
  H       1.463002      1.855369     -2.273749
  H       1.109785      3.063266     -1.062797
  H      -0.150399      0.279867     -1.119613
  H      -0.921792      1.750961     -1.701247
  H      -4.519131      0.872677      2.331211
  H      -5.953383      1.665611      0.555715
  H      -5.078209      0.768437     -0.662052
  H      -6.802445     -0.372982      1.580816
61
Coordinates from ORCA-job minEg_row2_A7_H4 E -1305.916535015366
  O      -8.257753      0.309744     -0.705398
  C      -7.430287     -0.530650     -0.460955
  N      -7.314222     -1.749004     -1.114234
  C      -6.282685     -2.562134     -0.667820
  O      -6.008286     -3.643794     -1.121160
  C      -5.586402     -1.828223      0.475225
  C      -4.075657     -1.690844      0.239524
  C      -3.477031     -0.723157      1.270748
  C      -2.024436     -0.388535      0.952865
  O      -1.119022     -1.182469      0.851280
  N      -1.908399      0.985420      0.788601
  C      -0.663700      1.699103      0.447593
  C       0.464883      1.485331      1.492835
  C       1.659966      0.709275      0.934400
  C       2.283042      1.386458     -0.302857
  C       3.177598      0.418533     -1.096984
  C       4.342072     -0.237652     -0.340528
  C       5.377288      0.779022      0.167137
  C       6.547848      0.103987      0.890340
  C       7.219675     -0.957885      0.015574
  C       6.200951     -1.977691     -0.501248
  C       5.032676     -1.294475     -1.218198
  C       1.180862      1.991401     -1.218397
  C      -0.196960      1.369885     -0.977641
  C      -3.115461      1.658816      0.972670
  O      -3.264754      2.851864      0.868108
  C      -4.195424      0.642143      1.317010
  C      -5.401497      0.738739      0.372082
  C      -6.323978     -0.469358      0.588376
  H      -7.931165     -2.020943     -1.867343
  H      -5.745132     -2.428628      1.375459
  H      -3.590365     -2.662935      0.305080
  H      -3.887767     -1.319854     -0.771774
  H      -3.486706     -1.210126      2.249496
  H      -0.965585      2.745909      0.468966
  H       0.799447      2.467281      1.839355
  H       0.066237      0.973119      2.369812
  H       1.334152     -0.302435      0.681214
  H       2.412260      0.603346      1.719134
  H       2.904163      2.216391      0.048284
  H       3.586129      0.954540     -1.962285
  H       2.540828     -0.375942     -1.506005
  H       3.935783     -0.762555      0.533173
  H       4.904920      1.506088      0.833020
  H       5.761510      1.348274     -0.689219
  H       6.178745     -0.368201      1.808559
  H       7.278984      0.855633      1.201422
  H       7.704978     -0.468888     -0.837648
  H       8.012031     -1.463572      0.574778
  H       5.813426     -2.559215      0.343579
  H       6.686884     -2.692191     -1.171774
  H       4.300091     -2.041884     -1.537877
  H       5.401129     -0.811633     -2.132351
  H       1.460168      1.867742     -2.267214
  H       1.108604      3.070995     -1.051436
  H      -0.152579      0.288099     -1.116985
  H      -0.923812      1.760485     -1.694070
  H      -4.530778      0.870888      2.332597
  H      -5.945108      1.666471      0.540950
  H      -5.060620      0.764954     -0.666495
  H      -6.811761     -0.365065      1.561112
61
Coordinates from ORCA-job minEg_row2_A7_H4 E -1305.916553556763
  O      -8.233284      0.304693     -0.754629
  C      -7.414663     -0.537148     -0.487442
  N      -7.297937     -1.766099     -1.121296
  C      -6.276889     -2.578975     -0.649838
  O      -6.005455     -3.670075     -1.081309
  C      -5.585023     -1.829183      0.485849
  C      -4.073517     -1.696235      0.252144
  C      -3.474824     -0.720406      1.275348
  C      -2.023418     -0.384090      0.951542
  O      -1.117722     -1.176885      0.846722
  N      -1.908272      0.990917      0.791860
  C      -0.663895      1.706293      0.454000
  C       0.464698      1.489453      1.498702
  C       1.659351      0.713763      0.938570
  C       2.283530      1.392867     -0.297341
  C       3.173122      0.423911     -1.095651
  C       4.336356     -0.238355     -0.342642
  C       5.374380      0.773831      0.167765
  C       6.544964      0.093784      0.886459
  C       7.212978     -0.966868      0.007106
  C       6.190997     -1.982569     -0.511799
  C       5.022922     -1.294164     -1.224495
  C       1.182166      2.005279     -1.208677
  C      -0.196299      1.383313     -0.972152
  C      -3.116006      1.662882      0.977342
  O      -3.264925      2.856498      0.880544
  C      -4.196552      0.644186      1.315679
  C      -5.393670      0.737149      0.358800
  C      -6.321205     -0.466965      0.575156
  H      -7.910229     -2.047468     -1.874740
  H      -5.747029     -2.415806      1.394347
  H      -3.590181     -2.668554      0.327765
  H      -3.883015     -1.335190     -0.762190
  H      -3.480960     -1.199591      2.257938
  H      -0.966179      2.752867      0.479695
  H       0.800034      2.470328      1.847406
  H       0.066037      0.975664      2.374740
  H       1.332930     -0.297099      0.683098
  H       2.411415      0.605830      1.723274
  H       2.908855      2.219136      0.054833
  H       3.582694      0.961186     -1.959689
  H       2.532879     -0.366940     -1.506237
  H       3.929082     -0.765330      0.529403
  H       4.904558      1.498589      0.837911
  H       5.758329      1.346242     -0.686599
  H       6.176723     -0.380377      1.803991
  H       7.278261      0.842912      1.198449
  H       7.698268     -0.476180     -0.845136
  H       8.004905     -1.476255      0.563502
  H       5.803301     -2.566075      0.331566
  H       6.674234     -2.695780     -1.185557
  H       4.287826     -2.039016     -1.544339
  H       5.390708     -0.809845     -2.138112
  H       1.461432      1.888599     -2.258323
  H       1.110983      3.083768     -1.034462
  H      -0.152325      0.302281     -1.117465
  H      -0.922419      1.777610     -1.687343
  H      -4.542206      0.873299      2.327488
  H      -5.936275      1.667330      0.517125
  H      -5.043506      0.755922     -0.676782
  H      -6.821036     -0.352861      1.540591
61
Coordinates from ORCA-job minEg_row2_A7_H4 E -1305.916560074510
  O      -8.213379      0.302366     -0.797501
  C      -7.402476     -0.540397     -0.511089
  N      -7.286994     -1.778921     -1.127103
  C      -6.274023     -2.590911     -0.635977
  O      -6.006414     -3.689950     -1.048865
  C      -5.585808     -1.827847      0.493255
  C      -4.073528     -1.699000      0.262377
  C      -3.475731     -0.717173      1.280165
  C      -2.024109     -0.381470      0.955792
  O      -1.119233     -1.174467      0.847096
  N      -1.908225      0.994158      0.798882
  C      -0.663648      1.709783      0.462264
  C       0.465526      1.489727      1.505570
  C       1.659068      0.714017      0.943037
  C       2.283349      1.394959     -0.291987
  C       3.169520      0.425962     -1.093850
  C       4.333409     -0.239222     -0.344264
  C       5.372778      0.770882      0.167222
  C       6.544633      0.088429      0.881516
  C       7.210303     -0.970237     -0.001950
  C       6.186783     -1.984107     -0.521367
  C       5.017540     -1.293366     -1.229864
  C       1.182106      2.012567     -1.199784
  C      -0.196664      1.390683     -0.965015
  C      -3.116558      1.666408      0.981671
  O      -3.264852      2.859954      0.883705
  C      -4.198682      0.647155      1.313669
  C      -5.387667      0.737269      0.346498
  C      -6.319857     -0.463231      0.562390
  H      -7.894965     -2.067624     -1.881270
  H      -5.751117     -2.402723      1.408587
  H      -3.592062     -2.671665      0.345762
  H      -3.880393     -1.345038     -0.753903
  H      -3.481849     -1.190154      2.265800
  H      -0.966032      2.756299      0.490915
  H       0.802101      2.469680      1.855691
  H       0.067174      0.974614      2.380994
  H       1.331444     -0.295894      0.685502
  H       2.411362      0.603701      1.727237
  H       2.911348      2.218838      0.061008
  H       3.578470      0.964258     -1.957597
  H       2.527405     -0.363227     -1.504697
  H       3.926898     -0.768116      0.527047
  H       4.904567      1.493449      0.840820
  H       5.755247      1.345966     -0.686032
  H       6.178234     -0.387786      1.798741
  H       7.278740      0.836635      1.193841
  H       7.693945     -0.477486     -0.853958
  H       8.003269     -1.481346      0.551372
  H       5.800527     -2.569620      0.321291
  H       6.668208     -2.695801     -1.198007
  H       4.281190     -2.037094     -1.549452
  H       5.383659     -0.807213     -2.143181
  H       1.460703      1.900369     -2.250146
  H       1.111891      3.090325     -1.020788
  H      -0.153110      0.310054     -1.113461
  H      -0.922858      1.787207     -1.678924
  H      -4.552976      0.877427      2.322139
  H      -5.929157      1.669732      0.495360
  H      -5.029083      0.749168     -0.686231
  H      -6.829942     -0.340961      1.521507
61
Coordinates from ORCA-job minEg_row2_A7_H4 E -1305.916554812044
  O      -8.200857      0.301469     -0.825303
  C      -7.396468     -0.542490     -0.524523
  N      -7.283676     -1.788125     -1.126746
  C      -6.276148     -2.599255     -0.622811
  O      -6.012696     -3.704227     -1.022239
  C      -5.588283     -1.826145      0.499714
  C      -4.075777     -1.700890      0.268367
  C      -3.477012     -0.714595      1.281098
  C      -2.025410     -0.380287      0.955606
  O      -1.121438     -1.173912      0.843797
  N      -1.908131      0.995619      0.801792
  C      -0.662917      1.711168      0.466948
  C       0.466099      1.487277      1.509430
  C       1.658822      0.711861      0.944857
  C       2.283660      1.395473     -0.288434
  C       3.168679      0.427751     -1.092947
  C       4.332893     -0.239449     -0.345384
  C       5.372375      0.769228      0.168663
  C       6.544556      0.084740      0.880348
  C       7.209914     -0.971041     -0.006615
  C       6.186379     -1.983569     -0.528325
  C       5.016739     -1.291059     -1.234239
  C       1.183002      2.016964     -1.194193
  C      -0.196141      1.395397     -0.961333
  C      -3.116909      1.668507      0.980888
  O      -3.263944      2.862262      0.883234
  C      -4.199931      0.649591      1.310126
  C      -5.384883      0.737926      0.338072
  C      -6.320030     -0.460038      0.554830
  H      -7.888742     -2.081647     -1.881381
  H      -5.754339     -2.391970      1.420563
  H      -3.595834     -2.673918      0.356572
  H      -3.882471     -1.352109     -0.749669
  H      -3.482376     -1.183024      2.269017
  H      -0.965034      2.757736      0.498105
  H       0.803689      2.466132      1.861722
  H       0.067322      0.970335      2.383599
  H       1.330100     -0.296987      0.684508
  H       2.410896      0.598567      1.728867
  H       2.912614      2.217758      0.066624
  H       3.577460      0.967650     -1.955796
  H       2.526204     -0.360444     -1.505126
  H       3.926653     -0.770712      0.524644
  H       4.904382      1.489654      0.844692
  H       5.754496      1.346933     -0.682997
  H       6.178571     -0.394233      1.796327
  H       7.278532      0.832252      1.194704
  H       7.692759     -0.475539     -0.857505
  H       8.003495     -1.483561      0.544541
  H       5.800774     -2.571669      0.312861
  H       6.667504     -2.693240     -1.207342
  H       4.280244     -2.033914     -1.555554
  H       5.382475     -0.802171     -2.146257
  H       1.461656      1.908138     -2.244927
  H       1.113504      3.094169     -1.011568
  H      -0.153046      0.315029     -1.111863
  H      -0.922143      1.793910     -1.674312
  H      -4.558313      0.881226      2.316900
  H      -5.925148      1.672055      0.481121
  H      -5.022002      0.744996     -0.693184
  H      -6.836349     -0.331551      1.509893
61
Coordinates from ORCA-job minEg_row2_A7_H4 E -1305.916552081976
  O      -8.192685      0.301356     -0.843932
  C      -7.392728     -0.543383     -0.533384
  N      -7.282866     -1.794052     -1.125261
  C      -6.279257     -2.604461     -0.612732
  O      -6.018986     -3.713570     -1.002872
  C      -5.590868     -1.824423      0.504454
  C      -4.078174     -1.702188      0.272306
  C      -3.478386     -0.712711      1.281206
  C      -2.026870     -0.379663      0.954916
  O      -1.123481     -1.173993      0.842259
  N      -1.908240      0.996179      0.803188
  C      -0.662314      1.711314      0.469652
  C       0.466359      1.483989      1.511611
  C       1.658549      0.709047      0.945347
  C       2.283790      1.395196     -0.286261
  C       3.168974      0.429181     -1.092576
  C       4.333350     -0.239257     -0.346199
  C       5.372659      0.768550      0.170094
  C       6.544759      0.082565      0.880405
  C       7.210490     -0.970720     -0.009096
  C       6.187367     -1.982369     -0.533080
  C       5.017632     -1.288634     -1.237470
  C       1.183614      2.018933     -1.191075
  C      -0.195891      1.397856     -0.959435
  C      -3.116977      1.669769      0.980222
  O      -3.263333      2.863577      0.881634
  C      -4.200809      0.651426      1.307403
  C      -5.383689      0.739051      0.332865
  C      -6.320687     -0.457346      0.549957
  H      -7.885802     -2.090698     -1.880372
  H      -5.757049     -2.383882      1.429189
  H      -3.599549     -2.675547      0.363904
  H      -3.884878     -1.357327     -0.747105
  H      -3.483069     -1.178282      2.270591
  H      -0.963651      2.758056      0.502708
  H       0.804646      2.461782      1.866232
  H       0.066971      0.965233      2.384436
  H       1.329084     -0.298965      0.682555
  H       2.410440      0.593197      1.729156
  H       2.912612      2.216662      0.070978
  H       3.577679      0.970653     -1.954465
  H       2.526831     -0.358496     -1.506253
  H       3.927297     -0.772441      0.522720
  H       4.904462      1.487574      0.847472
  H       5.754857      1.348045     -0.680317
  H       6.178567     -0.398808      1.795053
  H       7.278424      0.829499      1.196902
  H       7.692975     -0.472906     -0.858848
  H       8.004395     -1.484269      0.540655
  H       5.802085     -2.572646      0.306740
  H       6.668727     -2.690317     -1.213768
  H       4.281420     -2.030850     -1.560906
  H       5.383443     -0.797291     -2.148140
  H       1.462444      1.912029     -2.241953
  H       1.114699      3.095830     -1.006316
  H      -0.153468      0.317651     -1.111267
  H      -0.921711      1.798081     -1.671603
  H      -4.561291      0.884036      2.313267
  H      -5.923010      1.674223      0.472573
  H      -5.018397      0.743433     -0.697593
  H      -6.841484     -0.324478      1.502090
61
Coordinates from ORCA-job minEg_row2_A7_H4 E -1305.916564744214
  O      -8.189176      0.303414     -0.851785
  C      -7.391939     -0.542333     -0.536791
  N      -7.283977     -1.795027     -1.124386
  C      -6.282477     -2.605582     -0.608297
  O      -6.024169     -3.716611     -0.994419
  C      -5.593307     -1.823116      0.506586
  C      -4.080509     -1.702762      0.273638
  C      -3.479645     -0.712397      1.280984
  C      -2.028096     -0.380153      0.954295
  O      -1.125377     -1.175198      0.840658
  N      -1.908527      0.995522      0.803184
  C      -0.662060      1.710049      0.470204
  C       0.466361      1.481122      1.512083
  C       1.658471      0.706612      0.945067
  C       2.283819      1.394043     -0.285717
  C       3.169805      0.429191     -1.092542
  C       4.334446     -0.239107     -0.346479
  C       5.373097      0.768980      0.170738
  C       6.545431      0.083081      0.880762
  C       7.212065     -0.968843     -0.009672
  C       6.189738     -1.980772     -0.534674
  C       5.019633     -1.287222     -1.238605
  C       1.183736      2.018056     -1.190528
  C      -0.195906      1.397227     -0.959141
  C      -3.116864      1.669728      0.980167
  O      -3.262448      2.863732      0.882671
  C      -4.201371      0.652015      1.306730
  C      -5.383734      0.740263      0.331606
  C      -6.321828     -0.455325      0.548331
  H      -7.885930     -2.092530     -1.879947
  H      -5.759335     -2.380012      1.432891
  H      -3.602889     -2.676470      0.366479
  H      -3.887258     -1.359644     -0.746390
  H      -3.483859     -1.177277      2.270730
  H      -0.962592      2.756981      0.503916
  H       0.804813      2.458356      1.868089
  H       0.066620      0.961350      2.384130
  H       1.328891     -0.301110      0.681251
  H       2.410326      0.589755      1.728747
  H       2.912007      2.215511      0.072646
  H       3.578292      0.971470     -1.954012
  H       2.528243     -0.358616     -1.506879
  H       3.928698     -0.773237      0.521973
  H       4.904306      1.487354      0.848401
  H       5.755098      1.349251     -0.679225
  H       6.179226     -0.399507      1.794758
  H       7.278542      0.830125      1.198262
  H       7.694228     -0.469843     -0.858903
  H       8.006305     -1.482359      0.539630
  H       5.804871     -2.572131      0.304567
  H       6.671709     -2.687762     -1.215934
  H       4.284053     -2.029589     -1.563117
  H       5.385290     -0.794662     -2.148678
  H       1.462671      1.911418     -2.241388
  H       1.114992      3.094913     -1.005444
  H      -0.153927      0.317066     -1.111344
  H      -0.921666      1.798172     -1.670935
  H      -4.562219      0.884953      2.312413
  H      -5.922323      1.675926      0.470608
  H      -5.017754      0.744173     -0.698643
  H      -6.844616     -0.320615      1.499144
