61
Coordinates from ORCA-job minEg_row2_A7_H4 E -1305.916564744214
  O          -8.18917561630697      0.30341358088629     -0.85178488482028
  C          -7.39193907473490     -0.54233250160076     -0.53679123939889
  N          -7.28397732170645     -1.79502671640332     -1.12438570183213
  C          -6.28247731543480     -2.60558209780134     -0.60829747665451
  O          -6.02416949618217     -3.71661076757525     -0.99441922062965
  C          -5.59330691380152     -1.82311567647144      0.50658589282699
  C          -4.08050868595178     -1.70276248746899      0.27363831445595
  C          -3.47964451426855     -0.71239734821958      1.28098374809418
  C          -2.02809632025154     -0.38015292507004      0.95429490109088
  O          -1.12537705175664     -1.17519795677980      0.84065806708650
  N          -1.90852731382986      0.99552181396060      0.80318388678869
  C          -0.66206019075982      1.71004889788749      0.47020384119794
  C           0.46636051728275      1.48112248202253      1.51208284923576
  C           1.65847142986006      0.70661230768825      0.94506699428298
  C           2.28381854063154      1.39404260551539     -0.28571700819420
  C           3.16980462594846      0.42919081636420     -1.09254164267783
  C           4.33444612456848     -0.23910708915489     -0.34647939737486
  C           5.37309671163669      0.76897981476686      0.17073783279805
  C           6.54543102971975      0.08308086514633      0.88076166388479
  C           7.21206543348811     -0.96884296449478     -0.00967181412849
  C           6.18973837672043     -1.98077167873537     -0.53467384740617
  C           5.01963303789207     -1.28722183501249     -1.23860475967627
  C           1.18373617123785      2.01805581466291     -1.19052831079812
  C          -0.19590589578681      1.39722732723900     -0.95914144602744
  C          -3.11686356502538      1.66972832735822      0.98016699139474
  O          -3.26244795482866      2.86373181456923      0.88267116278742
  C          -4.20137143671772      0.65201499205830      1.30672958111504
  C          -5.38373424515216      0.74026272268491      0.33160611405206
  C          -6.32182784215837     -0.45532463873706      0.54833080578111
  H          -7.88593009471303     -2.09252987257866     -1.87994700239740
  H          -5.75933450829856     -2.38001226140938      1.43289128880272
  H          -3.60288929942110     -2.67646968872492      0.36647877103197
  H          -3.88725800573706     -1.35964363996454     -0.74638978660702
  H          -3.48385891835297     -1.17727679681802      2.27073010196247
  H          -0.96259153126821      2.75698079541577      0.50391561740491
  H           0.80481250951066      2.45835587027424      1.86808926463444
  H           0.06662045884335      0.96135038457497      2.38412959624820
  H           1.32889055183445     -0.30110968316118      0.68125140845203
  H           2.41032578908526      0.58975480366122      1.72874739460066
  H           2.91200672473195      2.21551096576623      0.07264560442315
  H           3.57829178964461      0.97147025338882     -1.95401190375244
  H           2.52824316797144     -0.35861631552840     -1.50687920888979
  H           3.92869839529739     -0.77323702604854      0.52197254642212
  H           4.90430593664721      1.48735354572572      0.84840120580299
  H           5.75509836485232      1.34925093490972     -0.67922494489257
  H           6.17922560080853     -0.39950728034153      1.79475756539498
  H           7.27854194239005      0.83012528973152      1.19826234469634
  H           7.69422836192461     -0.46984260910059     -0.85890304453471
  H           8.00630489788920     -1.48235908972985      0.53962983706242
  H           5.80487076281265     -2.57213068786762      0.30456728289282
  H           6.67170901241461     -2.68776212790593     -1.21593426285565
  H           4.28405273071368     -2.02958936556067     -1.56311694683069
  H           5.38529013710700     -0.79466183849599     -2.14867801050212
  H           1.46267143668453      1.91141812037629     -2.24138819108390
  H           1.11499206546081      3.09491284401206     -1.00544418216536
  H          -0.15392651839382      0.31706607720318     -1.11134428480846
  H          -0.92166643896968      1.79817244897190     -1.67093465880924
  H          -4.56221909713869      0.88495301224508      2.31241272307775
  H          -5.92232337617519      1.67592634377888      0.47060819478568
  H          -5.01775416278491      0.74417315883888     -0.69864305733910
  H          -6.84461592970319     -0.32061506492408      1.49914384051853
