46
Coordinates from ORCA-job conjugate_row2_A2_H4 E -1259.406757501256
  O          -5.73717629143586     -3.00274166360575      0.69490635176095
  C          -5.58683951252273     -1.86106465766813      0.34658045738711
  N          -6.32680643862846     -1.20950802807348     -0.64088838903936
  C          -5.87205520164271      0.07302743913337     -0.96163281151907
  O          -6.43282907089498      0.84832778730447     -1.68979240775210
  C          -4.53320004014933      0.20747677982074     -0.24967072708728
  C          -4.04348682611621      1.55461221382649      0.24261572219784
  C          -2.73283933105604      1.36464264633899      1.02846853683963
  C          -1.47830862505603      1.33918328409818      0.15767973942652
  O          -1.30537045679043      1.92505140878468     -0.87922919656712
  N          -0.52401515235872      0.54336685816514      0.81148426906092
  C           0.83612474850007      0.41999808851958      0.38911364772637
  C           1.43542589448403     -0.83392313991573      0.31936578709809
  C           2.75619274975600     -0.94591953315964     -0.08748748137042
  C           3.50876541068983      0.18020208961479     -0.43855170999618
  C           4.91908836438374      0.05339280449676     -0.87576658637377
  C           5.88257056369136      0.98889582896091     -0.48060373064620
  C           7.20447342515424      0.86955174827590     -0.88984198853310
  C           7.59275039757679     -0.18759508501282     -1.70570742489067
  C           6.64688373424282     -1.12457182037757     -2.10733782998374
  C           5.32562314193007     -1.00569819517175     -1.69605300894151
  C           2.88416515752011      1.43005059994818     -0.36294260456888
  C           1.56578551122558      1.55468902687314      0.04764158549370
  C          -1.06403714095048     -0.12343518416301      1.92505735344670
  O          -0.44262240239512     -0.80662092500510      2.69632076349048
  C          -2.56702731126191      0.11591472275161      1.92975337043512
  C          -3.27257466371817     -1.17696200852486      1.42379161098164
  C          -4.64169543182594     -0.80084147065348      0.89706208220403
  H          -7.13071805088679     -1.62954313194502     -1.08641195164851
  H          -3.80573531638828     -0.18486413361934     -0.97522260405256
  H          -4.79665969390535      2.00665847771879      0.89286599348609
  H          -3.86719173938514      2.24582654708724     -0.58179171862578
  H          -2.59382958477362      2.24778715467847      1.66239729913428
  H           0.88109870842459     -1.71691193969395      0.60331722759428
  H           3.21599281588591     -1.92547216686461     -0.10961569917214
  H           5.59878627558416      1.80324814737129      0.17431729197229
  H           7.93448517448041      1.60015862110364     -0.56372017688631
  H           8.62302540097052     -0.28037342591576     -2.02556975361650
  H           6.93632752219481     -1.94716389896454     -2.74968491713735
  H           4.59449746603462     -1.72865363946098     -2.03563781174083
  H           3.42909839397190      2.31941738227200     -0.65186612426427
  H           1.10043539328123      2.52947086845786      0.08144670944724
  H          -2.88908811424465      0.30927618035425      2.95329491121146
  H          -2.69117326815633     -1.64049271236775      0.62100888352647
  H          -3.32262057577550     -1.90014252174029      2.23686706679778
  H          -5.21369400966399     -0.32864442405292      1.70966799369466
