
                                 *****************
                                 * O   R   C   A *
                                 *****************

                                            #,                                       
                                            ###                                      
                                            ####                                     
                                            #####                                    
                                            ######                                   
                                           ########,                                 
                                     ,,################,,,,,                         
                               ,,#################################,,                 
                          ,,##########################################,,             
                       ,#########################################, ''#####,          
                    ,#############################################,,   '####,        
                  ,##################################################,,,,####,       
                ,###########''''           ''''###############################       
              ,#####''   ,,,,##########,,,,          '''####'''          '####       
            ,##' ,,,,###########################,,,                        '##       
           ' ,,###''''                  '''############,,,                           
         ,,##''                                '''############,,,,        ,,,,,,###''
      ,#''                                            '''#######################'''  
     '                                                          ''''####''''         
             ,#######,   #######,   ,#######,      ##                                
            ,#'     '#,  ##    ##  ,#'     '#,    #''#        ,####,    ,#,          
            ##       ##  ##   ,#'  ##            #'  '#       #'       ,# #          
            ##       ##  #######   ##           ,######,      #####,      #          
            '#,     ,#'  ##    ##  '#,     ,#' ,#      #,     #,   #      #          
             '#######'   ##     ##  '#######'  #'      '#     '####' #    #          



                #########################################################
                #                        -***-                          #
                #          Department of theory and spectroscopy        #
                #                                                       #
                #                      Frank Neese                      #
                #                                                       #
                #     Directorship, Architecture, Infrastructure        #
                #                    SHARK, DRIVERS                     #
                #        Core code/Algorithms in most modules           #
                #                                                       #
                #        Max Planck Institute fuer Kohlenforschung      #
                #                Kaiser Wilhelm Platz 1                 #
                #                 D-45470 Muelheim/Ruhr                 #
                #                      Germany                          #
                #                                                       #
                #                  All rights reserved                  #
                #                        -***-                          #
                #########################################################


                         Program Version 6.1.1  -  RELEASE   -
                                (GIT: $487d211c$)
                          ($2025-11-21 10:33:24 +0100$)
                                                                         
                                  - NO-DMRG VERSION -                    
                                                                         


 With contributions from (in alphabetic order):
[Max-Planck-Institut fuer Kohlenforschung]                               
  Daniel Aravena         : Magnetic Suceptibility                        
  Michael Atanasov       : Ab Initio Ligand Field Theory (pilot matlab implementation)
  Alexander A. Auer      : GIAO ZORA, VPT2 properties, NMR spectrum      
  Ute Becker             : All parallelization in ORCA, NUMFREQ, NUMCALC 
  Giovanni Bistoni       : ED, misc. LED, open-shell LED, HFLD           
  Dmytro Bykov           : pre 5.0 version of the SCF Hessian            
  Marcos Casanova-Páez   : Triplet and SCS-CIS(D). UHF-(DLPNO)-IP/EA/STEOM-CCSD. UHF-CVS-IP/STEOM-CCSD   
  Vijay G. Chilkuri      : MRCI spin determinant printing, contributions to CSF-ICE 
  Pauline Colinet        : FMM embedding                                 
  Dipayan Datta          : RHF DLPNO-CCSD density                        
  Achintya Kumar Dutta   : EOM-CC, STEOM-CC                              
  Nicolas Foglia         : Exact transition moments, OPA infrastructure, MCD improvements    
  Dmitry Ganyushin       : Spin-Orbit,Spin-Spin,Magnetic field MRCI      
  Miquel Garcia-Rates    : C-PCM and meta-GGA Hessian, CCSD/C-PCM, Gaussian charge scheme 
  Tiago L. C. Gouveia    : GS-ROHF, GS-ROCIS                             
  Yang Guo               : DLPNO-NEVPT2, F12-NEVPT2, CIM, IAO-localization        
  Andreas Hansen         : Spin unrestricted coupled pair/coupled cluster methods 
  Ingolf Harden          : AUTO-CI MPn and infrastructure                
  Benjamin Helmich-Paris : MC-RPA, TRAH-(SCF,CASSCF), AVAS, COSX integrals, SCF dyn. polar., MC-PDFT, srDFT 
  Lee Huntington         : MR-EOM, pCC                                   
  Robert Izsak           : Overlap fitted RIJCOSX, COSX-SCS-MP3, EOM     
  Riya Kayal             : Wick's Theorem for AUTO-CI, AUTO-CI UHF-CCSDT 
  Emily Kempfer          : AUTO-CI RHF CISDT and CCSDT, approximate NEVPT4
  Christian Kollmar      : KDIIS, OOCD, Brueckner-CCSD(T), CCSD density, CASPT2, CASPT2-K, improved NEVPT2 
  Axel Koslowski         : Symmetry handling                             
  Simone Kossmann        : meta-GGA functionals, TD-DFT gradient, OOMP2, (MP2 Hessian; deprecated post 5.0) 
  Lucas Lang             : DCDCAS, Hyperfine gauge corrections, ICE-SOC+SSC
  Marvin Lechner         : AUTO-CI (C++ implementation), FIC-MRCC        
  Spencer Leger          : CASSCF response                               
  Dagmar Lenk            : GEPOL surface, SMD, ORCA-2-JSON               
  Dimitrios Liakos       : Extrapolation schemes; Compound Job, Property file
  Dimitrios Manganas     : Further ROCIS development; embedding schemes. LFT, Crystal Embedding 
  Dimitrios Pantazis     : SARC Basis sets                               
  Anastasios Papadopoulos: AUTO-CI, single reference methods and gradients 
  Taras Petrenko         : pre 6.0 DFT Hessian and TD-DFT gradient,  ECA, NRVS 
  Petra Pikulova         : Analytic Raman intensities                    
  Peter Pinski           : DLPNO-MP2, DLPNO-MP2 Gradient                 
  Shashank Vittal Rao    : ES-AILFT, MagRelax                            
  Christoph Reimann      : Effective Core Potentials                     
  Marius Retegan         : Local ZFS, SOC                                
  Christoph Riplinger    : Optimizer, TS searches, QM/MM, DLPNO-CCSD(T), (RO)-DLPNO pert. Triples 
  Michael Roemelt        : Original ROCIS implementation, recursive CI coupling coefficients
  Masaaki Saitow         : Open-shell DLPNO-CCSD energy and density      
  Barbara Sandhoefer     : DKH picture change effects                    
  Yorick L. A. Schmerwitz: GMF and freeze-and-release deltaSCF, NEB S-IDPP initial path                    
  Kantharuban Sivalingam : CASSCF convergence/infrastructure, NEVPT2, NEVPT3, NEVPT4(SD), FIC-MRCI and CEPA variants
  Bernardo de Souza      : ESD, SOC TD-DFT                               
  Georgi L. Stoychev     : AutoAux, RI-MP2 NMR, DLPNO-MP2 response, X2C  
  Van Anh Tran           : RI-MP2 g-tensors                              
  Willem Van den Heuvel  : Paramagnetic NMR                              
  Zikuan Wang            : NOTCH, Electric field optimization            
  Frank Wennmohs         : Technical directorship and infrastructure     
  Hang Xu                : AUTO-CI-Response properties                   
                                                                         
[FACCTs GmbH]                                                            
  Markus Bursch, Nicolas Foglia, Miquel Garcia-Rates, Ingolf Harden, Hagen Neugebauer, Anastasios Papadopoulos, 
  Christoph Riplinger, Bernardo de Souza, Georgi L. Stoychev                                                    
                                                                 
  APM, various basis sets, CI-OPT, improved COSX, DLPNO-Multilevel,           
  DOCKER, DRACO, updates on ESD, Fragmentator, GOAT, IRC, LR-CPCM, L-BFGS, MBIS, meta-GGA TD-DFT gradient, ML-optimized integration grids, 
  MM, NACMEs, nearIR, NEB, NEB-TS, NL-DFT gradient (VV10), 2- and 3-layer-ONIOM, interface openCOSMO-RS, QMMM,   
  Crystal-QMMM, RESP, rigid body optimization, SF, symmetry and pop. for TD-DFT, various functionals, SOLVATOR                                   
                                                                         
[Other institutions]                                                     
  V. Asgeirsson          : NEB                                           
  Christoph Bannwarth    : sTDA-DFT, sTD-DFT, PBEh-3c, B97-3c, D3        
  Giovanni Bistoni       : ETS/NOCV, ADLD/ADEX, COVALED                  
  Martin Brehm           : Molecular dynamics                            
  Ronald Cardenas        : ETS/NOCV                                      
  Martina Colucci        : COVALED                                       
  Sebastian Ehlert       : rSCAN, r2SCAN, r2SCAN-3c, D4, dhf basis sets  
  Marvin Friede          : D4 for Fr, Ra, Ac-Lr                          
  Lars Goerigk           : TD-DFT with DH, B97 family of functionals     
  Stefan Grimme          : VdW corrections, initial TS optimization, DFT functionals, gCP, sTDA/sTD-DF 
  Waldemar Hujo          : DFT-NL                                        
  H. Jonsson             : NEB                                           
  Holger Kruse           : gCP                                           
  Marcel Mueller         : wB97X-3c, vDZP basis set                      
  Hagen Neugebauer       : wr2SCAN, Native XTB                           
  Gianluca Regni         : ADLD/ADEX                                     
  Tobias Risthaus        : pre 6.0 range-separated hybrid DFT and stability analysis
  Lukas Wittmann         : regularized MP2, r2SCAN double-hybrids, wr2SCAN        
                                                                         
We gratefully acknowledge several colleagues who have allowed us to      
interface, adapt or use parts of their codes:                            
  Ed Valeev, F. Pavosevic, A. Kumar             : LibInt (2-el integral package), F12 methods 
  Garnet Chan, S. Sharma, J. Yang, R. Olivares  : DMRG                   
  Ulf Ekstrom                                   : XCFun DFT Library      
  Mihaly Kallay                                 : mrcc  (arbitrary order and MRCC methods)
  Frank Weinhold                                : gennbo (NPA and NBO analysis)           
  Simon Mueller                                 : openCOSMO-RS                            
  Christopher J. Cramer and Donald G. Truhlar   : smd solvation model                     
  S Lehtola, MJT Oliveira, MAL Marques          : LibXC Library                           
  Liviu Ungur et al                             : ANISO software                          


 Your calculation uses the libint2 library for the computation of 2-el integrals
 For citations please refer to: http://libint.valeyev.net

 Your ORCA version has been built with support for libXC version: 7.0.0
 For citations please refer to: https://libxc.gitlab.io

 This ORCA versions uses:
   CBLAS   interface :  Fast vector & matrix operations
   LAPACKE interface :  Fast linear algebra routines
   SCALAPACK package :  Parallel linear algebra routines
   Shared memory     :  Shared parallel matrices
   BLAS/LAPACK       :  OpenBLAS 0.3.29  USE64BITINT DYNAMIC_ARCH NO_AFFINITY Cooperlake SINGLE_THREADED
        Core in use  :  Cooperlake
   Copyright (c) 2011-2014, The OpenBLAS Project


  ***********************************
  * Starting time: Mon May 25 10:59:11 2026
  * Host name:     iv-yem1v8c074nu262e1cpm
  * Process ID:    695903
  * Working dir.:  /home/homo_lumo/judge/generated_inps/conjugate_row2_A2_H4
  ***********************************

Warning: RI is on but no J-basis has been assigned. Assigning Def2/J (nothing to worry about!)
================================================================================

----- Orbital basis set information -----
Your calculation utilizes the basis: def2-TZVP
   F. Weigend and R. Ahlrichs, Phys. Chem. Chem. Phys. 7, 3297 (2005).

----- AuxJ basis set information -----
Your calculation utilizes the auxiliary basis: def2/J
   H-Rn: F. Weigend, Phys. Chem. Chem. Phys. 8, 1057 (2006).
   Fr-Lr: K. Eichkorn, F. Weigend, O. Treutler, R. Ahlrichs; Theor. Chem. Acc. 97, 119 (1997).

================================================================================
                                        WARNINGS
                       Please study these warnings very carefully!
================================================================================


WARNING: Geometry Optimization
  ===> : Switching off AutoStart
         For restart on a previous wavefunction, please use MOREAD

================================================================================
                                       INPUT FILE
================================================================================
NAME = conjugate_row2_A2_H4.inp
|  1> ! B3LYP def2-TZVP RIJCOSX Opt
|  2> %pal
|  3>     nprocs 16
|  4> end
|  5> %scf
|  6>     MaxIter 500
|  7> end
|  8> %geom
|  9>     MaxIter 500
| 10> end
| 11> %elprop
| 12>     Dipole true
| 13>     Polar 1
| 14> end
| 15> * xyz 0 1
| 16> O     -5.592951   -2.939584    0.011311
| 17> C     -5.521748   -1.729056   -0.080107
| 18> N     -6.283346   -0.922362   -0.879977
| 19> C     -5.867546    0.380940   -0.859926
| 20> O     -6.451511    1.336981   -1.332410
| 21> C     -4.511853    0.373572   -0.206503
| 22> C     -4.034552    1.586213    0.560967
| 23> C     -2.710072    1.272775    1.277506
| 24> C     -1.499031    1.278470    0.369550
| 25> O     -1.450689    1.938574   -0.658099
| 26> N     -0.549045    0.436852    0.918914
| 27> C      0.807350    0.338992    0.471167
| 28> C      1.652748   -0.696852    0.895342
| 29> C      2.982921   -0.791043    0.455240
| 30> C      3.525959    0.148785   -0.426822
| 31> C      4.920170    0.050366   -0.888094
| 32> C      5.800163    1.139811   -0.773481
| 33> C      7.124413    1.046978   -1.210845
| 34> C      7.591779   -0.138387   -1.772177
| 35> C      6.736819   -1.230330   -1.895909
| 36> C      5.413178   -1.136085   -1.457032
| 37> C      2.689865    1.186144   -0.852109
| 38> C      1.359601    1.278732   -0.412306
| 39> C     -1.101368   -0.321216    1.934046
| 40> O     -0.564656   -1.086184    2.722885
| 41> C     -2.593973   -0.103466    1.939691
| 42> C     -3.291983   -1.263324    1.200145
| 43> C     -4.655980   -0.809729    0.737866
| 44> H     -7.083516   -1.246712   -1.399821
| 45> H     -3.795155    0.148471   -1.010737
| 46> H     -4.788423    1.872189    1.305583
| 47> H     -3.929422    2.443990   -0.113186
| 48> H     -2.525032    2.060995    2.020986
| 49> H      1.313756   -1.478148    1.569448
| 50> H      3.596156   -1.611811    0.824215
| 51> H      5.460136    2.072264   -0.327350
| 52> H      7.789667    1.900487   -1.109750
| 53> H      8.621216   -0.211142   -2.112859
| 54> H      7.097084   -2.156330   -2.336380
| 55> H      4.759869   -1.998399   -1.574417
| 56> H      3.062252    1.938123   -1.546112
| 57> H      0.788564    2.125610   -0.782313
| 58> H     -2.958192   -0.040961    2.971672
| 59> H     -2.694365   -1.609807    0.346613
| 60> H     -3.380057   -2.128946    1.867953
| 61> H     -5.259198   -0.537357    1.617620
| 62> *
| 63> 
| 64>                          ****END OF INPUT****
================================================================================

                       *****************************
                       * Geometry Optimization Run *
                       *****************************

Geometry optimization settings:
Update method            Update   .... BFGS
Choice of coordinates    CoordSys .... (2022) Redundant Internals
Initial Hessian          InHess   .... Almloef's Model
Max. no of cycles        MaxIter  .... 500

Convergence Tolerances:
Energy Change            TolE     ....  5.0000e-06 Eh
Max. Gradient            TolMAXG  ....  3.0000e-04 Eh/bohr
RMS Gradient             TolRMSG  ....  1.0000e-04 Eh/bohr
Max. Displacement        TolMAXD  ....  4.0000e-03 bohr
RMS Displacement         TolRMSD  ....  2.0000e-03 bohr
Strict Convergence                .... False

------------------------------------------------------------------------------
                        ORCA OPTIMIZATION COORDINATE SETUP
------------------------------------------------------------------------------

The optimization will be done in redundant internal coordinates (2022)
Making redundant internal coordinates   ...  (2022 redundants) done
Evaluating the initial hessian          ...  (Almloef) done
Evaluating the coordinates              ...  done
Calculating the B-matrix                .... done
Calculating the G-matrix                .... done
The number of degrees of freedom        ....  268

    -----------------------------------------------------------------
                    Redundant Internal Coordinates


    -----------------------------------------------------------------
         Definition                    Initial Value    Approx d2E/dq
    -----------------------------------------------------------------
      1. B(C   1,O   0)                  1.2161         1.060190   
      2. B(N   2,C   1)                  1.3677         0.607391   
      3. B(C   3,N   2)                  1.3682         0.606324   
      4. B(O   4,C   3)                  1.2158         1.061046   
      5. B(C   5,C   3)                  1.5050         0.409562   
      6. B(C   6,C   5)                  1.5124         0.398541   
      7. B(C   7,C   6)                  1.5382         0.362550   
      8. B(C   8,C   7)                  1.5136         0.396749   
      9. B(O   9,C   8)                  1.2223         1.035982   
     10. B(N  10,C   8)                  1.3830         0.574246   
     11. B(C  11,N  10)                  1.4317         0.480056   
     12. B(C  12,C  11)                  1.4027         0.596294   
     13. B(C  13,C  12)                  1.4043         0.592927   
     14. B(C  14,C  13)                  1.3986         0.605272   
     15. B(C  15,C  14)                  1.4718         0.462578   
     16. B(C  16,C  15)                  1.4051         0.590998   
     17. B(C  17,C  16)                  1.3977         0.607388   
     18. B(C  18,C  17)                  1.3923         0.619445   
     19. B(C  19,C  18)                  1.3923         0.619453   
     20. B(C  20,C  19)                  1.3977         0.607406   
     21. B(C  20,C  15)                  1.4051         0.590999   
     22. B(C  21,C  14)                  1.3986         0.605402   
     23. B(C  22,C  21)                  1.4041         0.593176   
     24. B(C  22,C  11)                  1.4031         0.595497   
     25. B(C  23,N  10)                  1.3821         0.576060   
     26. B(O  24,C  23)                  1.2229         1.033858   
     27. B(C  25,C  23)                  1.5084         0.404403   
     28. B(C  25,C   7)                  1.5317         0.371292   
     29. B(C  26,C  25)                  1.5425         0.356761   
     30. B(C  27,C   5)                  1.5208         0.386428   
     31. B(C  27,C   1)                  1.5046         0.410124   
     32. B(C  27,C  26)                  1.5099         0.402135   
     33. B(H  28,N   2)                  1.0078         0.436178   
     34. B(H  29,C   5)                  1.1005         0.346464   
     35. B(H  30,C   6)                  1.0975         0.350284   
     36. B(H  31,C   6)                  1.0960         0.352191   
     37. B(H  32,C   7)                  1.0992         0.348102   
     38. B(H  33,C  12)                  1.0862         0.365207   
     39. B(H  34,C  13)                  1.0890         0.361463   
     40. B(H  35,C  16)                  1.0882         0.362525   
     41. B(H  36,C  17)                  1.0869         0.364280   
     42. B(H  37,C  18)                  1.0868         0.364380   
     43. B(H  38,C  19)                  1.0869         0.364267   
     44. B(H  39,C  20)                  1.0882         0.362490   
     45. B(H  40,C  21)                  1.0889         0.361508   
     46. B(H  41,C  22)                  1.0864         0.364940   
     47. B(H  42,C  25)                  1.0962         0.352054   
     48. B(H  43,C  26)                  1.0981         0.349606   
     49. B(H  44,C  26)                  1.0968         0.351183   
     50. B(H  45,C  27)                  1.1009         0.345940   
     51. A(O   0,C   1,N   2)          126.7624         0.470452   
     52. A(O   0,C   1,C  27)          126.9456         0.440906   
     53. A(N   2,C   1,C  27)          106.1394         0.399221   
     54. A(C   1,N   2,H  28)          123.6386         0.357903   
     55. A(C   1,N   2,C   3)          112.5850         0.425135   
     56. A(C   3,N   2,H  28)          123.7399         0.357796   
     57. A(N   2,C   3,C   5)          105.9898         0.399002   
     58. A(O   4,C   3,C   5)          127.2456         0.440861   
     59. A(N   2,C   3,O   4)          126.6823         0.470370   
     60. A(C   3,C   5,C  27)          100.8391         0.371275   
     61. A(C   3,C   5,H  29)          105.6856         0.327178   
     62. A(C   6,C   5,H  29)          109.2272         0.325712   
     63. A(C  27,C   5,H  29)          110.8771         0.324065   
     64. A(C   3,C   5,C   6)          120.0458         0.373254   
     65. A(C   6,C   5,C  27)          109.7955         0.369538   
     66. A(C   5,C   6,H  30)          109.6595         0.326301   
     67. A(C   5,C   6,C   7)          110.1671         0.365517   
     68. A(C   7,C   6,H  31)          111.3100         0.321557   
     69. A(C   5,C   6,H  31)          110.2213         0.326592   
     70. A(H  30,C   6,H  31)          106.2163         0.288575   
     71. A(C   7,C   6,H  30)          109.1783         0.321271   
     72. A(C   8,C   7,H  32)          105.5656         0.325724   
     73. A(C   6,C   7,H  32)          108.2952         0.320943   
     74. A(C   6,C   7,C   8)          114.1260         0.365235   
     75. A(C   8,C   7,C  25)          101.6581         0.366729   
     76. A(C   6,C   7,C  25)          116.7286         0.361120   
     77. A(C  25,C   7,H  32)          109.8239         0.322197   
     78. A(O   9,C   8,N  10)          129.4524         0.463674   
     79. A(C   7,C   8,O   9)          122.5466         0.436453   
     80. A(C   7,C   8,N  10)          108.0006         0.393016   
     81. A(C   8,N  10,C  23)          110.5510         0.417068   
     82. A(C   8,N  10,C  11)          124.6207         0.403807   
     83. A(C  11,N  10,C  23)          124.8061         0.404031   
     84. A(C  12,C  11,C  22)          116.6020         0.427927   
     85. A(N  10,C  11,C  22)          121.6027         0.409040   
     86. A(N  10,C  11,C  12)          121.7949         0.409137   
     87. A(C  13,C  12,H  33)          116.2249         0.351089   
     88. A(C  11,C  12,H  33)          122.0570         0.351426   
     89. A(C  11,C  12,C  13)          121.7123         0.427596   
     90. A(C  12,C  13,C  14)          121.3563         0.428743   
     91. A(C  14,C  13,H  34)          120.0995         0.351701   
     92. A(C  12,C  13,H  34)          118.5411         0.350479   
     93. A(C  15,C  14,C  21)          121.3716         0.410195   
     94. A(C  13,C  14,C  21)          117.2626         0.430348   
     95. A(C  13,C  14,C  15)          121.3658         0.410179   
     96. A(C  16,C  15,C  20)          117.9016         0.426663   
     97. A(C  14,C  15,C  20)          121.0452         0.408449   
     98. A(C  14,C  15,C  16)          121.0531         0.408449   
     99. A(C  15,C  16,C  17)          121.0871         0.428761   
    100. A(C  17,C  16,H  35)          118.7678         0.352084   
    101. A(C  15,C  16,H  35)          120.1407         0.350460   
    102. A(C  16,C  17,C  18)          120.0484         0.432395   
    103. A(C  18,C  17,H  36)          120.0399         0.353546   
    104. A(C  16,C  17,H  36)          119.9115         0.352371   
    105. A(C  17,C  18,C  19)          119.8268         0.433927   
    106. A(C  19,C  18,H  37)          120.0851         0.353563   
    107. A(C  17,C  18,H  37)          120.0881         0.353562   
    108. A(C  18,C  19,C  20)          120.0484         0.432398   
    109. A(C  20,C  19,H  38)          119.9084         0.352371   
    110. A(C  18,C  19,H  38)          120.0430         0.353544   
    111. A(C  15,C  20,C  19)          121.0876         0.428763   
    112. A(C  19,C  20,H  39)          118.7670         0.352080   
    113. A(C  15,C  20,H  39)          120.1410         0.350454   
    114. A(C  14,C  21,C  22)          121.3340         0.428792   
    115. A(C  22,C  21,H  40)          118.5593         0.350511   
    116. A(C  14,C  21,H  40)          120.1038         0.351722   
    117. A(C  11,C  22,C  21)          121.7324         0.427525   
    118. A(C  21,C  22,H  41)          116.2768         0.351071   
    119. A(C  11,C  22,H  41)          121.9845         0.351303   
    120. A(O  24,C  23,C  25)          121.4778         0.437797   
    121. A(N  10,C  23,C  25)          108.6028         0.394552   
    122. A(N  10,C  23,O  24)          129.9028         0.463768   
    123. A(C  26,C  25,H  42)          110.1140         0.320691   
    124. A(C  23,C  25,H  42)          109.9100         0.327358   
    125. A(C   7,C  25,H  42)          109.3051         0.322794   
    126. A(C  23,C  25,C  26)          109.7202         0.365423   
    127. A(C   7,C  25,C  26)          115.7243         0.360130   
    128. A(C   7,C  25,C  23)          101.7180         0.367933   
    129. A(C  25,C  26,C  27)          109.2489         0.365072   
    130. A(C  27,C  26,H  44)          110.5453         0.326921   
    131. A(C  25,C  26,H  44)          109.7457         0.320561   
    132. A(C  27,C  26,H  43)          110.3930         0.326679   
    133. A(C  25,C  26,H  43)          111.3249         0.320325   
    134. A(H  43,C  26,H  44)          105.5421         0.288358   
    135. A(C   5,C  27,C  26)          109.7699         0.370109   
    136. A(C   1,C  27,C  26)          120.1780         0.373921   
    137. A(C  26,C  27,H  45)          108.9432         0.326113   
    138. A(C   1,C  27,C   5)          101.0906         0.371363   
    139. A(C   5,C  27,H  45)          110.8333         0.323984   
    140. A(C   1,C  27,H  45)          105.6833         0.327171   
    141. D(C   3,N   2,C   1,C  27)     10.6494         0.029780   
    142. D(H  28,N   2,C   1,C  27)   -167.2232         0.029780   
    143. D(C   3,N   2,C   1,O   0)   -173.6098         0.029780   
    144. D(H  28,N   2,C   1,O   0)      8.5176         0.029780   
    145. D(C   5,C   3,N   2,C   1)     13.1765         0.029668   
    146. D(O   4,C   3,N   2,H  28)      7.9246         0.029668   
    147. D(C   5,C   3,N   2,H  28)   -168.9534         0.029668   
    148. D(O   4,C   3,N   2,C   1)   -169.9454         0.029668   
    149. D(C  27,C   5,C   3,O   4)    152.5471         0.012424   
    150. D(C   6,C   5,C   3,O   4)     31.9439         0.012424   
    151. D(C  27,C   5,C   3,N   2)    -30.5981         0.012424   
    152. D(H  29,C   5,C   3,N   2)     84.9101         0.012424   
    153. D(C   6,C   5,C   3,N   2)   -151.2013         0.012424   
    154. D(C   7,C   6,C   5,C  27)     56.8495         0.012606   
    155. D(C   7,C   6,C   5,H  29)    -64.9301         0.012606   
    156. D(C   7,C   6,C   5,C   3)    172.8945         0.012606   
    157. D(H  30,C   6,C   5,H  29)    174.8818         0.012606   
    158. D(H  30,C   6,C   5,C   3)     52.7065         0.012606   
    159. D(H  30,C   6,C   5,C  27)    -63.3385         0.012606   
    160. D(C  25,C   7,C   6,H  30)     79.4207         0.010535   
    161. D(C  25,C   7,C   6,C   5)    -41.0572         0.010535   
    162. D(C   8,C   7,C   6,H  31)    -45.3825         0.010535   
    163. D(C   8,C   7,C   6,C   5)     77.2002         0.010535   
    164. D(C  25,C   7,C   6,H  31)   -163.6398         0.010535   
    165. D(C   8,C   7,C   6,H  30)   -162.3219         0.010535   
    166. D(N  10,C   8,C   7,C  25)    -26.5711         0.011691   
    167. D(O   9,C   8,C   7,H  32)    -92.1437         0.011691   
    168. D(O   9,C   8,C   7,C   6)     26.6600         0.011691   
    169. D(O   9,C   8,C   7,C  25)    153.2153         0.011691   
    170. D(N  10,C   8,C   7,C   6)   -153.1264         0.011691   
    171. D(C  11,N  10,C   8,C   7)   -169.5870         0.026415   
    172. D(C  23,N  10,C   8,O   9)   -167.7049         0.026415   
    173. D(C  23,N  10,C   8,C   7)     12.0620         0.026415   
    174. D(C  11,N  10,C   8,O   9)     10.6461         0.026415   
    175. D(C  22,C  11,N  10,C  23)   -169.6845         0.018180   
    176. D(C  22,C  11,N  10,C   8)     12.1961         0.018180   
    177. D(C  12,C  11,N  10,C  23)     10.1120         0.018180   
    178. D(C  12,C  11,N  10,C   8)   -168.0075         0.018180   
    179. D(H  33,C  12,C  11,C  22)   -179.2752         0.024496   
    180. D(H  33,C  12,C  11,N  10)      0.9187         0.024496   
    181. D(C  13,C  12,C  11,C  22)     -0.1838         0.024496   
    182. D(C  13,C  12,C  11,N  10)   -179.9899         0.024496   
    183. D(H  34,C  13,C  12,H  33)     -1.3802         0.024206   
    184. D(C  14,C  13,C  12,H  33)    179.2587         0.024206   
    185. D(C  14,C  13,C  12,C  11)      0.1171         0.024206   
    186. D(H  34,C  13,C  12,C  11)    179.4782         0.024206   
    187. D(C  21,C  14,C  13,H  34)   -179.3376         0.025280   
    188. D(C  21,C  14,C  13,C  12)      0.0137         0.025280   
    189. D(C  15,C  14,C  13,H  34)      0.6403         0.025280   
    190. D(C  15,C  14,C  13,C  12)    179.9916         0.025280   
    191. D(C  20,C  15,C  14,C  21)   -127.4134         0.014574   
    192. D(C  20,C  15,C  14,C  13)     52.6097         0.014574   
    193. D(C  16,C  15,C  14,C  21)     52.5849         0.014574   
    194. D(C  16,C  15,C  14,C  13)   -127.3921         0.014574   
    195. D(H  35,C  16,C  15,C  20)   -179.2547         0.024040   
    196. D(H  35,C  16,C  15,C  14)      0.7470         0.024040   
    197. D(C  17,C  16,C  15,C  20)     -0.0248         0.024040   
    198. D(C  17,C  16,C  15,C  14)    179.9769         0.024040   
    199. D(C  18,C  17,C  16,C  15)      0.0520         0.025467   
    200. D(C  18,C  17,C  16,H  35)    179.2922         0.025467   
    201. D(H  36,C  17,C  16,H  35)     -0.5438         0.025467   
    202. D(H  36,C  17,C  16,C  15)   -179.7840         0.025467   
    203. D(C  19,C  18,C  17,C  16)     -0.0265         0.026549   
    204. D(H  37,C  18,C  17,H  36)     -0.1907         0.026549   
    205. D(H  37,C  18,C  17,C  16)    179.9736         0.026549   
    206. D(C  19,C  18,C  17,H  36)    179.8093         0.026549   
    207. D(H  38,C  19,C  18,H  37)     -0.1900         0.026550   
    208. D(H  38,C  19,C  18,C  17)    179.8101         0.026550   
    209. D(C  20,C  19,C  18,H  37)    179.9749         0.026550   
    210. D(C  20,C  19,C  18,C  17)     -0.0251         0.026550   
    211. D(H  39,C  20,C  19,H  38)     -0.5414         0.025468   
    212. D(H  39,C  20,C  19,C  18)    179.2940         0.025468   
    213. D(C  15,C  20,C  19,H  38)   -179.7828         0.025468   
    214. D(C  15,C  20,C  19,C  18)      0.0525         0.025468   
    215. D(H  39,C  20,C  15,C  16)   -179.2584         0.024041   
    216. D(H  39,C  20,C  15,C  14)      0.7399         0.024041   
    217. D(C  19,C  20,C  15,C  16)     -0.0273         0.024041   
    218. D(C  19,C  20,C  15,C  14)    179.9710         0.024041   
    219. D(H  40,C  21,C  14,C  15)      0.5869         0.025291   
    220. D(H  40,C  21,C  14,C  13)   -179.4352         0.025291   
    221. D(C  22,C  21,C  14,C  15)    179.9534         0.025291   
    222. D(C  22,C  21,C  14,C  13)     -0.0687         0.025291   
    223. D(H  41,C  22,C  21,H  40)     -1.5204         0.024227   
    224. D(H  41,C  22,C  21,C  14)    179.1036         0.024227   
    225. D(C  11,C  22,C  21,H  40)    179.3719         0.024227   
    226. D(C  11,C  22,C  21,C  14)     -0.0041         0.024227   
    227. D(H  41,C  22,C  11,C  12)   -178.9281         0.024427   
    228. D(H  41,C  22,C  11,N  10)      0.8784         0.024427   
    229. D(C  21,C  22,C  11,C  12)      0.1286         0.024427   
    230. D(C  21,C  22,C  11,N  10)    179.9351         0.024427   
    231. D(C  25,C  23,N  10,C  11)   -170.0133         0.026593   
    232. D(C  25,C  23,N  10,C   8)      8.3340         0.026593   
    233. D(O  24,C  23,N  10,C  11)      8.4932         0.026593   
    234. D(O  24,C  23,N  10,C   8)   -173.1596         0.026593   
    235. D(H  42,C  25,C  23,N  10)   -140.1734         0.012126   
    236. D(C  26,C  25,C  23,O  24)    -80.0526         0.012126   
    237. D(C   7,C  25,C  23,O  24)    156.9059         0.012126   
    238. D(C   7,C  25,C  23,N  10)    -24.4375         0.012126   
    239. D(C  26,C  25,C   7,H  32)    159.2302         0.011016   
    240. D(C  26,C  25,C   7,C   8)    -89.3233         0.011016   
    241. D(C  26,C  25,C   7,C   6)     35.5096         0.011016   
    242. D(C  26,C  25,C  23,N  10)     98.6040         0.012126   
    243. D(C  23,C  25,C   7,H  32)    -81.9242         0.011016   
    244. D(C  23,C  25,C   7,C   8)     29.5223         0.011016   
    245. D(C  23,C  25,C   7,C   6)    154.3552         0.011016   
    246. D(H  43,C  26,C  25,H  42)   -157.0676         0.010225   
    247. D(H  43,C  26,C  25,C  23)    -35.9679         0.010225   
    248. D(H  43,C  26,C  25,C   7)     78.3740         0.010225   
    249. D(C  27,C  26,C  25,H  42)     80.7552         0.010225   
    250. D(C  27,C  26,C  25,C  23)   -158.1451         0.010225   
    251. D(C  27,C  26,C  25,C   7)    -43.8032         0.010225   
    252. D(C   5,C  27,C  26,C  25)     60.1855         0.012826   
    253. D(C   1,C  27,C  26,H  44)    -62.4954         0.012826   
    254. D(C   1,C  27,C  26,H  43)     53.9030         0.012826   
    255. D(C  26,C  27,C   5,H  29)     51.5681         0.011882   
    256. D(C  26,C  27,C   5,C   6)    -69.2204         0.011882   
    257. D(C  26,C  27,C   5,C   3)    163.1381         0.011882   
    258. D(C   1,C  27,C   5,H  29)    -76.3689         0.011882   
    259. D(C   1,C  27,C   5,C   6)    162.8426         0.011882   
    260. D(C   1,C  27,C   5,C   3)     35.2011         0.011882   
    261. D(H  45,C  27,C   1,O   0)    -89.3779         0.012457   
    262. D(C   1,C  27,C  26,C  25)    176.6385         0.012826   
    263. D(C  26,C  27,C   1,N   2)   -150.0525         0.012457   
    264. D(C  26,C  27,C   1,O   0)     34.2170         0.012457   
    265. D(C   5,C  27,C   1,N   2)    -29.2082         0.012457   
    266. D(C   5,C  27,C  26,H  43)    -62.5500         0.012826   
    267. D(C   5,C  27,C   1,O   0)    155.0612         0.012457   
    268. D(C   5,C  27,C  26,H  44)   -178.9484         0.012826   
    -----------------------------------------------------------------

Number of atoms                         .... 46
Number of degrees of freedom            .... 268


         *************************************************************
         *                GEOMETRY OPTIMIZATION CYCLE   1            *
         *************************************************************
---------------------------------
CARTESIAN COORDINATES (ANGSTROEM)
---------------------------------
  O     -5.592951   -2.939584    0.011311
  C     -5.521748   -1.729056   -0.080107
  N     -6.283346   -0.922362   -0.879977
  C     -5.867546    0.380940   -0.859926
  O     -6.451511    1.336981   -1.332410
  C     -4.511853    0.373572   -0.206503
  C     -4.034552    1.586213    0.560967
  C     -2.710072    1.272775    1.277506
  C     -1.499031    1.278470    0.369550
  O     -1.450689    1.938574   -0.658099
  N     -0.549045    0.436852    0.918914
  C      0.807350    0.338992    0.471167
  C      1.652748   -0.696852    0.895342
  C      2.982921   -0.791043    0.455240
  C      3.525959    0.148785   -0.426822
  C      4.920170    0.050366   -0.888094
  C      5.800163    1.139811   -0.773481
  C      7.124413    1.046978   -1.210845
  C      7.591779   -0.138387   -1.772177
  C      6.736819   -1.230330   -1.895909
  C      5.413178   -1.136085   -1.457032
  C      2.689865    1.186144   -0.852109
  C      1.359601    1.278732   -0.412306
  C     -1.101368   -0.321216    1.934046
  O     -0.564656   -1.086184    2.722885
  C     -2.593973   -0.103466    1.939691
  C     -3.291983   -1.263324    1.200145
  C     -4.655980   -0.809729    0.737866
  H     -7.083516   -1.246712   -1.399821
  H     -3.795155    0.148471   -1.010737
  H     -4.788423    1.872189    1.305583
  H     -3.929422    2.443990   -0.113186
  H     -2.525032    2.060995    2.020986
  H      1.313756   -1.478148    1.569448
  H      3.596156   -1.611811    0.824215
  H      5.460136    2.072264   -0.327350
  H      7.789667    1.900487   -1.109750
  H      8.621216   -0.211142   -2.112859
  H      7.097084   -2.156330   -2.336380
  H      4.759869   -1.998399   -1.574417
  H      3.062252    1.938123   -1.546112
  H      0.788564    2.125610   -0.782313
  H     -2.958192   -0.040961    2.971672
  H     -2.694365   -1.609807    0.346613
  H     -3.380057   -2.128946    1.867953
  H     -5.259198   -0.537357    1.617620

----------------------------
CARTESIAN COORDINATES (A.U.)
----------------------------
  NO LB      ZA    FRAG     MASS         X           Y           Z
   0 O     8.0000    0    15.999  -10.569146   -5.555009    0.021375
   1 C     6.0000    0    12.011  -10.434592   -3.267442   -0.151380
   2 N     7.0000    0    14.007  -11.873803   -1.743012   -1.662916
   3 C     6.0000    0    12.011  -11.088055    0.719872   -1.625025
   4 O     8.0000    0    15.999  -12.191589    2.526528   -2.517890
   5 C     6.0000    0    12.011   -8.526167    0.705949   -0.390234
   6 C     6.0000    0    12.011   -7.624198    2.997508    1.060074
   7 C     6.0000    0    12.011   -5.121294    2.405196    2.414136
   8 C     6.0000    0    12.011   -2.832758    2.415958    0.698348
   9 O     8.0000    0    15.999   -2.741405    3.663374   -1.243627
  10 N     7.0000    0    14.007   -1.037545    0.825531    1.736496
  11 C     6.0000    0    12.011    1.525670    0.640602    0.890377
  12 C     6.0000    0    12.011    3.123241   -1.316859    1.691951
  13 C     6.0000    0    12.011    5.636904   -1.494855    0.860279
  14 C     6.0000    0    12.011    6.663097    0.281163   -0.806577
  15 C     6.0000    0    12.011    9.297774    0.095178   -1.678254
  16 C     6.0000    0    12.011   10.960720    2.153931   -1.461667
  17 C     6.0000    0    12.011   13.463189    1.978502   -2.288165
  18 C     6.0000    0    12.011   14.346383   -0.261514   -3.348929
  19 C     6.0000    0    12.011   12.730743   -2.324987   -3.582749
  20 C     6.0000    0    12.011   10.229424   -2.146890   -2.753391
  21 C     6.0000    0    12.011    5.083108    2.241487   -1.610253
  22 C     6.0000    0    12.011    2.569274    2.416453   -0.779145
  23 C     6.0000    0    12.011   -2.081284   -0.607010    3.654817
  24 O     8.0000    0    15.999   -1.067045   -2.052590    5.145507
  25 C     6.0000    0    12.011   -4.901899   -0.195522    3.665485
  26 C     6.0000    0    12.011   -6.220946   -2.387336    2.267945
  27 C     6.0000    0    12.011   -8.798527   -1.530166    1.394365
  28 H     1.0000    0     1.008  -13.385905   -2.355944   -2.645278
  29 H     1.0000    0     1.008   -7.171804    0.280570   -1.910016
  30 H     1.0000    0     1.008   -9.048808    3.537924    2.467194
  31 H     1.0000    0     1.008   -7.425531    4.618472   -0.213891
  32 H     1.0000    0     1.008   -4.771619    3.894716    3.819110
  33 H     1.0000    0     1.008    2.482639   -2.793295    2.965827
  34 H     1.0000    0     1.008    6.795750   -3.045881    1.557541
  35 H     1.0000    0     1.008   10.318162    3.916011   -0.618602
  36 H     1.0000    0     1.008   14.720337    3.591400   -2.097124
  37 H     1.0000    0     1.008   16.291737   -0.399001   -3.992725
  38 H     1.0000    0     1.008   13.411545   -4.074873   -4.415118
  39 H     1.0000    0     1.008    8.994849   -3.776427   -2.975217
  40 H     1.0000    0     1.008    5.786818    3.662522   -2.921728
  41 H     1.0000    0     1.008    1.490170    4.016821   -1.478357
  42 H     1.0000    0     1.008   -5.590173   -0.077405    5.615646
  43 H     1.0000    0     1.008   -5.091612   -3.042094    0.655004
  44 H     1.0000    0     1.008   -6.387382   -4.023125    3.529920
  45 H     1.0000    0     1.008   -9.938444   -1.015458    3.056859

--------------------------------
INTERNAL COORDINATES (ANGSTROEM)
--------------------------------
 O      0   0   0     0.000000000000     0.00000000     0.00000000
 C      1   0   0     1.216061329340     0.00000000     0.00000000
 N      2   1   0     1.367691025100   126.76242398     0.00000000
 C      3   2   1     1.368169501855   112.58504673   186.39017114
 O      4   3   2     1.215841537850   126.68229659   190.05455385
 C      4   3   2     1.504964921386   105.98975001    13.17652314
 C      6   4   3     1.512390373013   120.04576817   208.79871475
 C      7   6   4     1.538154344910   110.16710308   172.89448663
 C      8   7   6     1.513617136082   114.12596955    77.20018185
 O      9   8   7     1.222348848317   122.54660325    26.65999518
 N      9   8   7     1.382966038128   108.00061039   206.87357533
 C     11   9   8     1.431733687399   124.62067734   190.41296549
 C     12  11   9     1.402709877831   121.79493889   191.99254915
 C     13  12  11     1.404251375222   121.71233945   180.01007293
 C     14  13  12     1.398642309839   121.35632545     0.11711741
 C     15  14  13     1.471829633506   121.36582841   179.99158862
 C     16  15  14     1.405138508419   121.05312433   232.60790541
 C     17  16  15     1.397692132369   121.08707151   179.97686113
 C     18  17  16     1.392341472271   120.04843863     0.05197567
 C     19  18  17     1.392338222083   119.82683157   359.97353080
 C     20  19  18     1.397684026536   120.04836771   359.97493426
 C     15  14  13     1.398583534897   117.26259531     0.00000000
 C     12  11   9     1.403074116478   121.60274981    12.19611618
 C     11   9   8     1.382107364273   110.55097225    12.06198157
 O     24  11   9     1.222907510766   129.90281367   186.84044022
 C     24  11   9     1.508415265950   108.60282485     8.33396222
 C     26  24  11     1.542535842819   109.72017587    98.60398238
 C      2   1   3     1.504591702583   126.94561606   174.87866570
 H      3   2   1     1.007825746712   123.63856411     8.51762524
 H      6   4   3     1.100508432572   105.68563951    84.91008007
 H      7   6   4     1.097523004166   109.65947384    52.70647226
 H      7   6   4     1.096045603996   110.22132068   296.11517903
 H      8   7   6     1.099223853635   108.29518883   194.44244706
 H     13  12  11     1.086166614712   122.05695205     0.91866704
 H     14  13  12     1.088971912252   118.54112540   179.47823441
 H     17  16  15     1.088172700953   120.14074993     0.74700445
 H     18  17  16     1.086858176867   119.91149542   180.21603281
 H     19  18  17     1.086783351049   120.08809706   179.97356756
 H     20  19  18     1.086867780397   120.04301289   179.81006234
 H     21  20  19     1.088199118867   118.76702727   179.29399082
 H     22  15  14     1.088937398669   120.10375437   180.56477727
 H     23  12  11     1.086365860243   121.98449517     0.87838072
 H     26  24  11     1.096151056811   109.90995769   219.82660973
 H     27  26  24     1.098050371448   111.32489071   324.03212197
 H     27  26  24     1.096825419665   109.74574095    80.50278150
 H     28   2   1     1.100920325193   105.68328959   270.62211886

---------------------------
INTERNAL COORDINATES (A.U.)
---------------------------
 O      0   0   0     0.000000000000     0.00000000     0.00000000
 C      1   0   0     2.298022874505     0.00000000     0.00000000
 N      2   1   0     2.584561473262   126.76242398     0.00000000
 C      3   2   1     2.585465663289   112.58504673   186.39017114
 O      4   3   2     2.297607528783   126.68229659   190.05455385
 C      4   3   2     2.843971542578   105.98975001    13.17652314
 C      6   4   3     2.858003612573   120.04576817   208.79871475
 C      7   6   4     2.906690463581   110.16710308   172.89448663
 C      8   7   6     2.860321858806   114.12596955    77.20018185
 O      9   8   7     2.309904563432   122.54660325    26.65999518
 N      9   8   7     2.613427064576   108.00061039   206.87357533
 C     11   9   8     2.705584565894   124.62067734   190.41296549
 C     12  11   9     2.650737514447   121.79493889   191.99254915
 C     13  12  11     2.653650522353   121.71233945   180.01007293
 C     14  13  12     2.643050924911   121.35632545     0.11711741
 C     15  14  13     2.781354923116   121.36582841   179.99158862
 C     16  15  14     2.655326961139   121.05312433   232.60790541
 C     17  16  15     2.641255349713   121.08707151   179.97686113
 C     18  17  16     2.631144067492   120.04843863     0.05197567
 C     19  18  17     2.631137925528   119.82683157   359.97353080
 C     20  19  18     2.641240031910   120.04836771   359.97493426
 C     15  14  13     2.642939856368   117.26259531     0.00000000
 C     12  11   9     2.651425825737   121.60274981    12.19611618
 C     11   9   8     2.611804406151   110.55097225    12.06198157
 O     24  11   9     2.310960282464   129.90281367   186.84044022
 C     24  11   9     2.850491748871   108.60282485     8.33396222
 C     26  24  11     2.914970294684   109.72017587    98.60398238
 C      2   1   3     2.843266261252   126.94561606   174.87866570
 H      3   2   1     1.904514652001   123.63856411     8.51762524
 H      6   4   3     2.079659545631   105.68563951    84.91008007
 H      7   6   4     2.074017903552   109.65947384    52.70647226
 H      7   6   4     2.071226021840   110.22132068   296.11517903
 H      8   7   6     2.077232043244   108.29518883   194.44244706
 H     13  12  11     2.052557437615   122.05695205     0.91866704
 H     14  13  12     2.057858681689   118.54112540   179.47823441
 H     17  16  15     2.056348391210   120.14074993     0.74700445
 H     18  17  16     2.053864300691   119.91149542   180.21603281
 H     19  18  17     2.053722900388   120.08809706   179.97356756
 H     20  19  18     2.053882448734   120.04301289   179.81006234
 H     21  20  19     2.056398313832   118.76702727   179.29399082
 H     22  15  14     2.057793460468   120.10375437   180.56477727
 H     23  12  11     2.052933957101   121.98449517     0.87838072
 H     26  24  11     2.071425298780   109.90995769   219.82660973
 H     27  26  24     2.075014483287   111.32489071   324.03212197
 H     27  26  24     2.072699659891   109.74574095    80.50278150
 H     28   2   1     2.080437909883   105.68328959   270.62211886

---------------------
BASIS SET INFORMATION
---------------------
There are 4 groups of distinct atoms

 Group   1 Type O   : 11s6p2d1f contracted to 5s3p2d1f pattern {62111/411/11/1}
 Group   2 Type C   : 11s6p2d1f contracted to 5s3p2d1f pattern {62111/411/11/1}
 Group   3 Type N   : 11s6p2d1f contracted to 5s3p2d1f pattern {62111/411/11/1}
 Group   4 Type H   : 5s1p contracted to 3s1p pattern {311/1}

Atom   0O    basis set group =>   1
Atom   1C    basis set group =>   2
Atom   2N    basis set group =>   3
Atom   3C    basis set group =>   2
Atom   4O    basis set group =>   1
Atom   5C    basis set group =>   2
Atom   6C    basis set group =>   2
Atom   7C    basis set group =>   2
Atom   8C    basis set group =>   2
Atom   9O    basis set group =>   1
Atom  10N    basis set group =>   3
Atom  11C    basis set group =>   2
Atom  12C    basis set group =>   2
Atom  13C    basis set group =>   2
Atom  14C    basis set group =>   2
Atom  15C    basis set group =>   2
Atom  16C    basis set group =>   2
Atom  17C    basis set group =>   2
Atom  18C    basis set group =>   2
Atom  19C    basis set group =>   2
Atom  20C    basis set group =>   2
Atom  21C    basis set group =>   2
Atom  22C    basis set group =>   2
Atom  23C    basis set group =>   2
Atom  24O    basis set group =>   1
Atom  25C    basis set group =>   2
Atom  26C    basis set group =>   2
Atom  27C    basis set group =>   2
Atom  28H    basis set group =>   4
Atom  29H    basis set group =>   4
Atom  30H    basis set group =>   4
Atom  31H    basis set group =>   4
Atom  32H    basis set group =>   4
Atom  33H    basis set group =>   4
Atom  34H    basis set group =>   4
Atom  35H    basis set group =>   4
Atom  36H    basis set group =>   4
Atom  37H    basis set group =>   4
Atom  38H    basis set group =>   4
Atom  39H    basis set group =>   4
Atom  40H    basis set group =>   4
Atom  41H    basis set group =>   4
Atom  42H    basis set group =>   4
Atom  43H    basis set group =>   4
Atom  44H    basis set group =>   4
Atom  45H    basis set group =>   4
---------------------------------
AUXILIARY/J BASIS SET INFORMATION
---------------------------------
There are 4 groups of distinct atoms

 Group   1 Type O   : 12s5p4d2f1g contracted to 6s4p3d1f1g pattern {711111/2111/211/2/1}
 Group   2 Type C   : 12s5p4d2f1g contracted to 6s4p3d1f1g pattern {711111/2111/211/2/1}
 Group   3 Type N   : 12s5p4d2f1g contracted to 6s4p3d1f1g pattern {711111/2111/211/2/1}
 Group   4 Type H   : 5s2p1d contracted to 3s1p1d pattern {311/2/1}

Atom   0O    basis set group =>   1
Atom   1C    basis set group =>   2
Atom   2N    basis set group =>   3
Atom   3C    basis set group =>   2
Atom   4O    basis set group =>   1
Atom   5C    basis set group =>   2
Atom   6C    basis set group =>   2
Atom   7C    basis set group =>   2
Atom   8C    basis set group =>   2
Atom   9O    basis set group =>   1
Atom  10N    basis set group =>   3
Atom  11C    basis set group =>   2
Atom  12C    basis set group =>   2
Atom  13C    basis set group =>   2
Atom  14C    basis set group =>   2
Atom  15C    basis set group =>   2
Atom  16C    basis set group =>   2
Atom  17C    basis set group =>   2
Atom  18C    basis set group =>   2
Atom  19C    basis set group =>   2
Atom  20C    basis set group =>   2
Atom  21C    basis set group =>   2
Atom  22C    basis set group =>   2
Atom  23C    basis set group =>   2
Atom  24O    basis set group =>   1
Atom  25C    basis set group =>   2
Atom  26C    basis set group =>   2
Atom  27C    basis set group =>   2
Atom  28H    basis set group =>   4
Atom  29H    basis set group =>   4
Atom  30H    basis set group =>   4
Atom  31H    basis set group =>   4
Atom  32H    basis set group =>   4
Atom  33H    basis set group =>   4
Atom  34H    basis set group =>   4
Atom  35H    basis set group =>   4
Atom  36H    basis set group =>   4
Atom  37H    basis set group =>   4
Atom  38H    basis set group =>   4
Atom  39H    basis set group =>   4
Atom  40H    basis set group =>   4
Atom  41H    basis set group =>   4
Atom  42H    basis set group =>   4
Atom  43H    basis set group =>   4
Atom  44H    basis set group =>   4
Atom  45H    basis set group =>   4


           ************************************************************
           *        Program running with 16 parallel MPI-processes    *
           *              working on a common directory               *
           ************************************************************
------------------------------------------------------------------------------
                             ORCA STARTUP CALCULATIONS
                           -- RI-GTO INTEGRALS CHOSEN --
------------------------------------------------------------------------------
------------------------------------------------------------------------------
                   ___                                                        
                  /   \      - P O W E R E D   B Y -                         
                 /     \                                                     
                 |  |  |   _    _      __       _____    __    __             
                 |  |  |  | |  | |    /  \     |  _  \  |  |  /  |          
                  \  \/   | |  | |   /    \    | | | |  |  | /  /          
                 / \  \   | |__| |  /  /\  \   | |_| |  |  |/  /          
                |  |  |   |  __  | /  /__\  \  |    /   |      \           
                |  |  |   | |  | | |   __   |  |    \   |  |\   \          
                \     /   | |  | | |  |  |  |  | |\  \  |  | \   \       
                 \___/    |_|  |_| |__|  |__|  |_| \__\ |__|  \__/        
                                                                              
                      - O R C A' S   B I G   F R I E N D -                    
                                      &                                       
                       - I N T E G R A L  F E E D E R -                       
                                                                              
 v1 FN, 2020, v2 2021, v3 2022-2024                                           
------------------------------------------------------------------------------


----------------------
SHARK INTEGRAL PACKAGE
----------------------

Number of atoms                             ...     46
Number of basis functions                   ...    976
Number of shells                            ...    380
Maximum angular momentum                    ...      3
Integral batch strategy                     ... SHARK/LIBINT Hybrid
RI-J (if used) integral strategy            ... SPLIT-RIJ (Revised 2003 algorithm where possible)
Printlevel                                  ...      1
Contraction scheme used                     ... SEGMENTED contraction
Prescreening option                         ... SCHWARTZ
   Thresh                                   ... 2.500e-11
   Tcut                                     ... 2.500e-12
   Tpresel                                  ... 2.500e-12 
Coulomb Range Separation                    ... NOT USED
Exchange Range Separation                   ... NOT USED
Multipole approximations                    ... NOT USED
Finite Nucleus Model                        ... NOT USED
CABS basis                                  ... NOT available
Auxiliary Coulomb fitting basis             ... AVAILABLE
   # of basis functions in Aux-J            ...   1570
   # of shells in Aux-J                     ...    510
   Maximum angular momentum in Aux-J        ...      4
Auxiliary J/K fitting basis                 ... NOT available
Auxiliary Correlation fitting basis         ... NOT available
Auxiliary 'external' fitting basis          ... NOT available

Checking pre-screening integrals            ... done (  0.0 sec) Dimension = 380
   => SHARK Basis and OBASIS are compatible. Storing Pre-screening
Shell pair information
Shell pair cut-off parameter TPreSel        ...   2.5e-12
Total number of shell pairs                 ...     72390
Shell pairs after pre-screening             ...     42393
Total number of primitive shell pairs       ...    224116
Primitive shell pairs kept                  ...     86633
          la=0 lb=0:  10620 shell pairs
          la=1 lb=0:  12270 shell pairs
          la=1 lb=1:   3554 shell pairs
          la=2 lb=0:   6022 shell pairs
          la=2 lb=1:   3519 shell pairs
          la=2 lb=2:    877 shell pairs
          la=3 lb=0:   2847 shell pairs
          la=3 lb=1:   1686 shell pairs
          la=3 lb=2:    797 shell pairs
          la=3 lb=3:    201 shell pairs

Checking whether 4 symmetric matrices of dimension 976 fit in memory
:Max Core in MB      =   4096.00
 MB in use           =     54.91
 MB left             =   4041.09
 MB needed           =     14.55
 Data fit in memory  = YES
Calculating RI/J V-Matrix + Cholesky decomp.... done (  0.1 sec)
Calculating Nuclear repulsion               ... done (  0.0 sec) ENN=   2410.273182529921 Eh

Diagonalization of the overlap matrix:
Smallest eigenvalue                        ... 6.637e-06
Time for diagonalization                   ...    0.155 sec
Threshold for overlap eigenvalues          ... 1.000e-07
Number of eigenvalues below threshold      ... 0
Time for construction of square roots      ...    0.066 sec
Total time needed                          ...    0.227 sec

-------------------
DFT GRID GENERATION
-------------------

General Integration Accuracy     IntAcc      ... 4.388
Radial Grid Type                 RadialGrid  ... OptM3 with GC (2021)
Angular Grid (max. ang.)         AngularGrid ... 4 (Lebedev-302)
Angular grid pruning method      GridPruning ... 4 (adaptive)
Weight generation scheme         WeightScheme... mBecke (2022)
Basis function cutoff            BFCut       ... 1.0000e-11
Integration weight cutoff        WCut        ... 1.0000e-14
Partially contracted basis set               ... off
Rotationally invariant grid construction     ... off
Angular grids for H and He will be reduced by one unit

Total number of grid points                  ...   224161
Total number of batches                      ...     3523
Average number of points per batch           ...       63
Average number of grid points per atom       ...     4873

--------------------
COSX GRID GENERATION
--------------------

GRIDX 1
-------
General Integration Accuracy     IntAcc      ... 3.816
Radial Grid Type                 RadialGrid  ... OptM3 with GC (2021)
Angular Grid (max. ang.)         AngularGrid ... 1 (Lebedev-50)
Angular grid pruning method      GridPruning ... 4 (adaptive)
Weight generation scheme         WeightScheme... mBecke (2022)
Basis function cutoff            BFCut       ... 1.0000e-11
Integration weight cutoff        WCut        ... 1.0000e-14
Partially contracted basis set               ... on
Rotationally invariant grid construction     ... off
Angular grids for H and He will be reduced by one unit

Total number of grid points                  ...    28406
Total number of batches                      ...      248
Average number of points per batch           ...      114
Average number of grid points per atom       ...      618
UseSFitting                                  ... on

GRIDX 2
-------
General Integration Accuracy     IntAcc      ... 4.020
Radial Grid Type                 RadialGrid  ... OptM3 with GC (2021)
Angular Grid (max. ang.)         AngularGrid ... 2 (Lebedev-110)
Angular grid pruning method      GridPruning ... 4 (adaptive)
Weight generation scheme         WeightScheme... mBecke (2022)
Basis function cutoff            BFCut       ... 1.0000e-11
Integration weight cutoff        WCut        ... 1.0000e-14
Partially contracted basis set               ... on
Rotationally invariant grid construction     ... off
Angular grids for H and He will be reduced by one unit

Total number of grid points                  ...    62301
Total number of batches                      ...      511
Average number of points per batch           ...      121
Average number of grid points per atom       ...     1354
UseSFitting                                  ... on

GRIDX 3
-------
General Integration Accuracy     IntAcc      ... 4.338
Radial Grid Type                 RadialGrid  ... OptM3 with GC (2021)
Angular Grid (max. ang.)         AngularGrid ... 3 (Lebedev-194)
Angular grid pruning method      GridPruning ... 4 (adaptive)
Weight generation scheme         WeightScheme... mBecke (2022)
Basis function cutoff            BFCut       ... 1.0000e-11
Integration weight cutoff        WCut        ... 1.0000e-14
Partially contracted basis set               ... on
Rotationally invariant grid construction     ... off
Angular grids for H and He will be reduced by one unit

Total number of grid points                  ...   136255
Total number of batches                      ...     1087
Average number of points per batch           ...      125
Average number of grid points per atom       ...     2962
UseSFitting                                  ... on
Grids setup in   1.9 sec
Initializing property integral containers    ... done (  0.0 sec)

SHARK setup successfully completed in   2.6 seconds

Maximum memory used throughout the entire STARTUP-calculation: 96.5 MB


           ************************************************************
           *        Program running with 16 parallel MPI-processes    *
           *              working on a common directory               *
           ************************************************************
-------------------------------------------------------------------------------
                                 ORCA GUESS
                   Start orbitals & Density for SCF / CASSCF
-------------------------------------------------------------------------------

------------
SCF SETTINGS
------------
Hamiltonian:
 Density Functional     Method          .... DFT(GTOs)
 Exchange Functional    Exchange        .... B88
   X-Alpha parameter    XAlpha          ....  0.666667
   Becke's b parameter  XBeta           ....  0.004200
 Correlation Functional Correlation     .... LYP
 LDA part of GGA corr.  LDAOpt          .... VWN-5
 Gradients option       PostSCFGGA      .... off
 Hybrid DFT is turned on
   Fraction HF Exchange ScalHFX         ....  0.200000
   Scaling of DF-GGA-X  ScalDFX         ....  0.720000
   Scaling of DF-GGA-C  ScalDFC         ....  0.810000
   Scaling of DF-LDA-C  ScalLDAC        ....  1.000000
   Perturbative correction              ....  0.000000
   NL short-range parameter             ....  4.800000
 RI-approximation to the Coulomb term is turned on
   Number of AuxJ basis functions       .... 1570
   RIJ-COSX (HFX calculated with COS-X)).... on


General Settings:
 Integral files         IntName         .... conjugate_row2_A2_H4
 Hartree-Fock type      HFTyp           .... RHF
 Total Charge           Charge          ....    0
 Multiplicity           Mult            ....    1
 Number of Electrons    NEL             ....  196
 Basis Dimension        Dim             ....  976
 Nuclear Repulsion      ENuc            ....   2410.2731825299 Eh

Convergence Acceleration:
 AO-DIIS                CNVDIIS         .... on
   Start iteration      DIISMaxIt       ....    12
   Startup error        DIISStart       ....  0.200000
   # of expansion vecs  DIISMaxEq       ....     5
   Bias factor          DIISBfac        ....   1.050
   Max. coefficient     DIISMaxC        ....  10.000
 MO-DIIS                CNVKDIIS        .... off
 Trust-Rad. Augm. Hess. CNVTRAH         .... auto
   Auto Start mean grad. ratio tolernc. ....  1.125000
   Auto Start start iteration           ....    50
   Auto Start num. interpolation iter.  ....    10
   Max. Number of Micro iterations      ....    24
   Max. Number of Macro iterations      .... Maxiter - #DIIS iter
   Number of Davidson start vectors     ....     2
   Converg. threshold    (grad. norm)   ....   1.000e-05
   Grad. Scal. Fac. for Micro threshold ....   0.100
   Minimum threshold for Micro iter.    ....   1.000e-02
   NR start threshold (gradient norm)   ....   1.000e-04
   Initial trust radius                 ....   0.400
   Minimum AH scaling param. (alpha)    ....   1.000
   Maximum AH scaling param. (alpha)    .... 1000.000
   Quad. conv. algorithm                .... NR
   White noise on init. David. guess    .... on
   Maximum white noise                  ....   0.010
   Pseudo random numbers                .... off
   Inactive MOs                         .... canonical
   Orbital update algorithm             .... Taylor
   Preconditioner                       .... Diag
   Full preconditioner red. dimension   ....   250
 SOSCF                 CNVSOSCF           .... on
   Start iteration     SOSCFMaxIt         ....   150
   Startup grad/error  SOSCFStart         ....  0.003300
   Hessian update      SOSCFHessUp        .... L-BFGS
   Autom. constraints  SOSCFAutoConstrain .... off
 Level Shifting         CNVShift        .... on
   Level shift para.    LevelShift      ....    0.2500
   Turn off err/grad.   ShiftErr        ....    0.0010
 Zerner damping         CNVZerner       .... off
 Static damping         CNVDamp         .... on
   Fraction old density DampFac         ....    0.7000
   Max. Damping (<1)    DampMax         ....    0.9800
   Min. Damping (>=0)   DampMin         ....    0.0000
   Turn off err/grad.   DampErr         ....    0.1000

SCF Procedure:
 Maximum # iterations   MaxIter         ....   500
 SCF integral mode      SCFMode         .... Direct
   Integral package                     .... SHARK and LIBINT hybrid scheme
 Reset frequency        DirectResetFreq ....    20
 Integral Threshold     Thresh          ....  2.500e-11 Eh
 Primitive CutOff       TCut            ....  2.500e-12 Eh

Convergence Tolerance:
 Convergence Check Mode ConvCheckMode   .... Total+1el-Energy
 Convergence forced     ConvForced      .... 0
 Energy Change          TolE            ....  1.000e-08 Eh
 1-El. energy change                    ....  1.000e-05 Eh
 Orbital Gradient       TolG            ....  1.000e-05
 Orbital Rotation angle TolX            ....  1.000e-05
 DIIS Error             TolErr          ....  5.000e-07

------------------------------
INITIAL GUESS: MODEL POTENTIAL
------------------------------
Loading Hartree-Fock densities                     ... done
Calculating cut-offs                               ... done
Initializing the effective Hamiltonian             ... done
Setting up the integral package (SHARK)            ... done
Starting the Coulomb interaction                   ... done (   0.2 sec)
Making the grid                                    ... done (   0.2 sec)
Mapping shells                                     ... done
Starting the XC term evaluation                    ... done (   0.1 sec)
  promolecular density results
     # of electrons  =    195.993277168
     EX              =   -164.543448827
     EC              =     -6.751073545
     EX+EC           =   -171.294522372
Transforming the Hamiltonian                       ... done (   0.1 sec)
Diagonalizing the Hamiltonian                      ... done (   0.2 sec)
Back transforming the eigenvectors                 ... done (   0.0 sec)
Now organizing SCF variables                       ... done
                      ------------------
                      INITIAL GUESS DONE (   0.9 sec)
                      ------------------
             **** ENERGY FILE WAS UPDATED (conjugate_row2_A2_H4.en.tmp) ****
Finished Guess after   1.2 sec
Maximum memory used throughout the entire GUESS-calculation: 81.5 MB


           ************************************************************
           *        Program running with 16 parallel MPI-processes    *
           *              working on a common directory               *
           ************************************************************

-------------------------------------------------------------------------------------------
                                      ORCA LEAN-SCF
                              memory conserving SCF solver
-------------------------------------------------------------------------------------------

----------------------------------------D-I-I-S--------------------------------------------
Iteration    Energy (Eh)           Delta-E    RMSDP     MaxDP     DIISErr   Damp  Time(sec)
-------------------------------------------------------------------------------------------
               ***  Starting incremental Fock matrix formation  ***
    1    -1258.5678161509331403     0.00e+00  8.22e-03  4.69e-01  2.97e-01  0.700   6.7
    2    -1258.9598431427639298    -3.92e-01  6.60e-03  3.92e-01  1.07e-01  0.700   3.8
                               ***Turning on AO-DIIS***
    3    -1259.0972273050042531    -1.37e-01  1.90e-03  7.76e-02  4.66e-02  0.700   3.4
    4    -1259.1879781202696904    -9.08e-02  2.57e-03  9.36e-02  2.09e-02  0.000   3.3
    5    -1259.3891812036163174    -2.01e-01  1.53e-03  9.24e-02  7.09e-03  0.000   3.4
                              *** Initializing SOSCF ***
---------------------------------------S-O-S-C-F--------------------------------------
Iteration    Energy (Eh)           Delta-E    RMSDP     MaxDP     MaxGrad    Time(sec)
--------------------------------------------------------------------------------------
    6    -1259.3905235941651881    -1.34e-03  4.82e-04  2.83e-02  1.49e-03     3.4
               *** Restarting incremental Fock matrix formation ***
    7    -1259.3905661781959680    -4.26e-05  4.12e-04  1.84e-02  3.77e-04     6.6
    8    -1259.3905444795104813     2.17e-05  7.94e-05  3.89e-03  8.52e-04     4.7
    9    -1259.3905806015500275    -3.61e-05  5.66e-05  2.64e-03  8.86e-05     4.2
   10    -1259.3905794430825154     1.16e-06  2.02e-05  8.89e-04  1.12e-04     4.0
   11    -1259.3905814381323580    -2.00e-06  1.71e-05  8.99e-04  3.93e-05     3.6
   12    -1259.3905813665714959     7.16e-08  8.63e-06  4.38e-04  6.89e-05     3.3
   13    -1259.3905815027314929    -1.36e-07  5.29e-06  1.80e-04  1.35e-05     3.0
   14    -1259.3905814538998129     4.88e-08  3.16e-06  1.49e-04  2.43e-05     2.8
   15    -1259.3905815414241260    -8.75e-08  7.40e-06  1.88e-04  1.70e-06     2.5
                  *** Gradient check signals convergence ***

               *****************************************************
               *                     SUCCESS                       *
               *           SCF CONVERGED AFTER  15 CYCLES          *
               *****************************************************

Recomputing exchange energy using gridx3       ... done (   10.947 sec)
Old exchange energy                            :    -33.367644418 Eh
New exchange energy                            :    -33.367630131 Eh
Exchange energy change after final integration :      0.000014286 Eh
Total energy after final integration           :  -1259.390567292 Eh
             **** ENERGY FILE WAS UPDATED (conjugate_row2_A2_H4.en.tmp) ****

----------------
TOTAL SCF ENERGY
----------------

Total Energy       :      -1259.39056729218487 Eh          -34269.75958 eV

Components:
Nuclear Repulsion  :       2410.27318252992063 Eh           65586.86767 eV
Electronic Energy  :      -3669.66376410834573 Eh          -99856.62763 eV
One Electron Energy:      -6501.96046788496824 Eh         -176927.33914 eV
Two Electron Energy:       2832.29670377662251 Eh           77070.71151 eV

Virial components:
Potential Energy   :      -2513.29450320827345 Eh          -68390.22032 eV
Kinetic Energy     :       1253.90393591608859 Eh           34120.46075 eV
Virial Ratio       :          2.00437563932845

DFT components:
N(Alpha)           :       98.000108266208 electrons
N(Beta)            :       98.000108266208 electrons
N(Total)           :      196.000216532415 electrons
E(X)               :     -132.660522074354 Eh       
E(C)               :       -7.943395761764 Eh       
E(XC)              :     -140.603917836118 Eh       

---------------
SCF CONVERGENCE
---------------

  Last Energy change         ...    8.7524e-08  Tolerance :   1.0000e-08
  Last MAX-Density change    ...    1.8783e-04  Tolerance :   1.0000e-07
  Last RMS-Density change    ...    7.4001e-06  Tolerance :   5.0000e-09
  Last DIIS Error            ...    1.4861e-03  Tolerance :   5.0000e-07
  Last Orbital Gradient      ...    1.7042e-06  Tolerance :   1.0000e-05
  Last Orbital Rotation      ...    5.1545e-06  Tolerance :   1.0000e-05


----------------
ORBITAL ENERGIES
----------------

  NO   OCC          E(Eh)            E(eV) 
   0   2.0000     -19.135165      -520.6943 
   1   2.0000     -19.131919      -520.6060 
   2   2.0000     -19.129048      -520.5279 
   3   2.0000     -19.128172      -520.5040 
   4   2.0000     -14.408024      -392.0623 
   5   2.0000     -14.385327      -391.4447 
   6   2.0000     -10.309661      -280.5401 
   7   2.0000     -10.308041      -280.4961 
   8   2.0000     -10.305285      -280.4211 
   9   2.0000     -10.304113      -280.3892 
  10   2.0000     -10.240972      -278.6710 
  11   2.0000     -10.215511      -277.9782 
  12   2.0000     -10.214533      -277.9516 
  13   2.0000     -10.213799      -277.9316 
  14   2.0000     -10.210444      -277.8403 
  15   2.0000     -10.205396      -277.7030 
  16   2.0000     -10.197007      -277.4747 
  17   2.0000     -10.193350      -277.3751 
  18   2.0000     -10.191622      -277.3281 
  19   2.0000     -10.188126      -277.2330 
  20   2.0000     -10.187543      -277.2171 
  21   2.0000     -10.185847      -277.1710 
  22   2.0000     -10.185618      -277.1648 
  23   2.0000     -10.181174      -277.0438 
  24   2.0000     -10.181117      -277.0423 
  25   2.0000     -10.180111      -277.0149 
  26   2.0000     -10.180007      -277.0121 
  27   2.0000     -10.178506      -276.9712 
  28   2.0000      -1.089564       -29.6486 
  29   2.0000      -1.085969       -29.5507 
  30   2.0000      -1.063432       -28.9375 
  31   2.0000      -1.060599       -28.8604 
  32   2.0000      -0.994399       -27.0590 
  33   2.0000      -0.982102       -26.7244 
  34   2.0000      -0.892102       -24.2753 
  35   2.0000      -0.875827       -23.8325 
  36   2.0000      -0.856631       -23.3101 
  37   2.0000      -0.826754       -22.4971 
  38   2.0000      -0.792134       -21.5551 
  39   2.0000      -0.785625       -21.3779 
  40   2.0000      -0.757200       -20.6045 
  41   2.0000      -0.749277       -20.3889 
  42   2.0000      -0.739763       -20.1300 
  43   2.0000      -0.710992       -19.3471 
  44   2.0000      -0.699785       -19.0421 
  45   2.0000      -0.680946       -18.5295 
  46   2.0000      -0.652413       -17.7531 
  47   2.0000      -0.645336       -17.5605 
  48   2.0000      -0.621548       -16.9132 
  49   2.0000      -0.610142       -16.6028 
  50   2.0000      -0.608821       -16.5669 
  51   2.0000      -0.599630       -16.3168 
  52   2.0000      -0.592678       -16.1276 
  53   2.0000      -0.573085       -15.5944 
  54   2.0000      -0.537895       -14.6369 
  55   2.0000      -0.533499       -14.5173 
  56   2.0000      -0.531425       -14.4608 
  57   2.0000      -0.519353       -14.1323 
  58   2.0000      -0.499247       -13.5852 
  59   2.0000      -0.497122       -13.5274 
  60   2.0000      -0.485982       -13.2243 
  61   2.0000      -0.478889       -13.0312 
  62   2.0000      -0.474434       -12.9100 
  63   2.0000      -0.471759       -12.8372 
  64   2.0000      -0.462493       -12.5851 
  65   2.0000      -0.461326       -12.5533 
  66   2.0000      -0.451313       -12.2809 
  67   2.0000      -0.450332       -12.2541 
  68   2.0000      -0.448711       -12.2100 
  69   2.0000      -0.445509       -12.1229 
  70   2.0000      -0.438660       -11.9366 
  71   2.0000      -0.429772       -11.6947 
  72   2.0000      -0.428080       -11.6487 
  73   2.0000      -0.426597       -11.6083 
  74   2.0000      -0.423503       -11.5241 
  75   2.0000      -0.422039       -11.4843 
  76   2.0000      -0.406345       -11.0572 
  77   2.0000      -0.394134       -10.7249 
  78   2.0000      -0.393529       -10.7085 
  79   2.0000      -0.386094       -10.5062 
  80   2.0000      -0.385152       -10.4805 
  81   2.0000      -0.374602       -10.1934 
  82   2.0000      -0.370553       -10.0833 
  83   2.0000      -0.362801        -9.8723 
  84   2.0000      -0.360722        -9.8157 
  85   2.0000      -0.353925        -9.6308 
  86   2.0000      -0.348492        -9.4829 
  87   2.0000      -0.348204        -9.4751 
  88   2.0000      -0.331226        -9.0131 
  89   2.0000      -0.312944        -8.5156 
  90   2.0000      -0.292735        -7.9657 
  91   2.0000      -0.292009        -7.9460 
  92   2.0000      -0.281652        -7.6641 
  93   2.0000      -0.277486        -7.5508 
  94   2.0000      -0.271341        -7.3836 
  95   2.0000      -0.264202        -7.1893 
  96   2.0000      -0.260487        -7.0882 
  97   2.0000      -0.238901        -6.5008 
  98   0.0000      -0.051677        -1.4062 
  99   0.0000      -0.050174        -1.3653 
 100   0.0000      -0.044639        -1.2147 
 101   0.0000      -0.026670        -0.7257 
 102   0.0000      -0.017725        -0.4823 
 103   0.0000      -0.011738        -0.3194 
 104   0.0000       0.004404         0.1198 
 105   0.0000       0.011664         0.3174 
 106   0.0000       0.027106         0.7376 
 107   0.0000       0.032637         0.8881 
 108   0.0000       0.039377         1.0715 
*Only the first 10 virtual orbitals were printed.

                    ********************************
                    * MULLIKEN POPULATION ANALYSIS *
                    ********************************

-----------------------
MULLIKEN ATOMIC CHARGES
-----------------------
   0 O :   -0.291950
   1 C :    0.193872
   2 N :   -0.187164
   3 C :    0.187088
   4 O :   -0.288324
   5 C :   -0.070985
   6 C :   -0.222756
   7 C :    0.090818
   8 C :    0.124845
   9 O :   -0.330789
  10 N :   -0.011375
  11 C :    0.121504
  12 C :   -0.173309
  13 C :   -0.197032
  14 C :    0.164861
  15 C :    0.150272
  16 C :   -0.202124
  17 C :   -0.108960
  18 C :   -0.102741
  19 C :   -0.108685
  20 C :   -0.202702
  21 C :   -0.200826
  22 C :   -0.171775
  23 C :    0.209610
  24 O :   -0.324218
  25 C :    0.016011
  26 C :   -0.344797
  27 C :    0.039778
  28 H :    0.227180
  29 H :    0.119268
  30 H :    0.104867
  31 H :    0.127685
  32 H :    0.104905
  33 H :    0.152273
  34 H :    0.125429
  35 H :    0.119395
  36 H :    0.109115
  37 H :    0.109212
  38 H :    0.109493
  39 H :    0.119633
  40 H :    0.125268
  41 H :    0.147821
  42 H :    0.089790
  43 H :    0.122824
  44 H :    0.133639
  45 H :    0.094056
Sum of atomic charges:   -0.0000000

--------------------------------
MULLIKEN REDUCED ORBITAL CHARGES
--------------------------------
  0 O s       :     3.807707  s :     3.807707
      pz      :     1.567953  p :     4.452578
      px      :     1.571350
      py      :     1.313275
      dz2     :     0.002746  d :     0.029925
      dxz     :     0.000191
      dyz     :     0.009629
      dx2y2   :     0.007902
      dxy     :     0.009456
      f0      :     0.000229  f :     0.001741
      f+1     :     0.000032
      f-1     :     0.000220
      f+2     :     0.000353
      f-2     :     0.000024
      f+3     :     0.000535
      f-3     :     0.000345

  1 C s       :     3.090154  s :     3.090154
      pz      :     0.811898  p :     2.453446
      px      :     0.854836
      py      :     0.786712
      dz2     :     0.030626  d :     0.240349
      dxz     :     0.008970
      dyz     :     0.082929
      dx2y2   :     0.028377
      dxy     :     0.089447
      f0      :     0.002341  f :     0.022179
      f+1     :     0.001710
      f-1     :     0.003052
      f+2     :     0.004729
      f-2     :     0.001544
      f+3     :     0.005561
      f-3     :     0.003243

  2 N s       :     3.425931  s :     3.425931
      pz      :     1.370184  p :     3.706003
      px      :     1.237856
      py      :     1.097963
      dz2     :     0.006771  d :     0.050966
      dxz     :     0.007406
      dyz     :     0.011437
      dx2y2   :     0.012596
      dxy     :     0.012756
      f0      :     0.000533  f :     0.004264
      f+1     :     0.000549
      f-1     :     0.000411
      f+2     :     0.000857
      f-2     :     0.000663
      f+3     :     0.000572
      f-3     :     0.000679

  3 C s       :     3.093269  s :     3.093269
      pz      :     0.814476  p :     2.457389
      px      :     0.895570
      py      :     0.747342
      dz2     :     0.025641  d :     0.240044
      dxz     :     0.031472
      dyz     :     0.046133
      dx2y2   :     0.087940
      dxy     :     0.048859
      f0      :     0.001656  f :     0.022210
      f+1     :     0.001784
      f-1     :     0.002801
      f+2     :     0.002942
      f-2     :     0.003150
      f+3     :     0.003677
      f-3     :     0.006201

  4 O s       :     3.807683  s :     3.807683
      pz      :     1.394212  p :     4.448955
      px      :     1.583789
      py      :     1.470954
      dz2     :     0.004881  d :     0.029943
      dxz     :     0.003058
      dyz     :     0.007434
      dx2y2   :     0.007063
      dxy     :     0.007506
      f0      :     0.000082  f :     0.001743
      f+1     :     0.000091
      f-1     :     0.000336
      f+2     :     0.000213
      f-2     :     0.000282
      f+3     :     0.000329
      f-3     :     0.000411

  5 C s       :     3.159097  s :     3.159097
      pz      :     0.908930  p :     2.783571
      px      :     0.919796
      py      :     0.954846
      dz2     :     0.020612  d :     0.119925
      dxz     :     0.028152
      dyz     :     0.020533
      dx2y2   :     0.028781
      dxy     :     0.021847
      f0      :     0.000442  f :     0.008392
      f+1     :     0.000708
      f-1     :     0.001566
      f+2     :     0.001841
      f-2     :     0.001560
      f+3     :     0.001219
      f-3     :     0.001055

  6 C s       :     3.245474  s :     3.245474
      pz      :     0.973052  p :     2.889055
      px      :     0.936885
      py      :     0.979118
      dz2     :     0.011581  d :     0.082339
      dxz     :     0.018069
      dyz     :     0.018211
      dx2y2   :     0.017552
      dxy     :     0.016927
      f0      :     0.000135  f :     0.005888
      f+1     :     0.000797
      f-1     :     0.000727
      f+2     :     0.001680
      f-2     :     0.001088
      f+3     :     0.000632
      f-3     :     0.000829

  7 C s       :     3.037275  s :     3.037275
      pz      :     0.934209  p :     2.747007
      px      :     0.903921
      py      :     0.908877
      dz2     :     0.017439  d :     0.116900
      dxz     :     0.025576
      dyz     :     0.022358
      dx2y2   :     0.025761
      dxy     :     0.025765
      f0      :     0.000460  f :     0.008000
      f+1     :     0.001234
      f-1     :     0.000940
      f+2     :     0.001978
      f-2     :     0.001212
      f+3     :     0.001204
      f-3     :     0.000971

  8 C s       :     3.165048  s :     3.165048
      pz      :     0.771285  p :     2.442315
      px      :     0.902885
      py      :     0.768146
      dz2     :     0.055678  d :     0.246020
      dxz     :     0.082460
      dyz     :     0.032237
      dx2y2   :     0.035898
      dxy     :     0.039747
      f0      :     0.003662  f :     0.021772
      f+1     :     0.003991
      f-1     :     0.003179
      f+2     :     0.002740
      f-2     :     0.004268
      f+3     :     0.002102
      f-3     :     0.001830

  9 O s       :     3.841401  s :     3.841401
      pz      :     1.335161  p :     4.457868
      px      :     1.724934
      py      :     1.397773
      dz2     :     0.009970  d :     0.029817
      dxz     :     0.005978
      dyz     :     0.008058
      dx2y2   :     0.003175
      dxy     :     0.002637
      f0      :     0.000465  f :     0.001703
      f+1     :     0.000226
      f-1     :     0.000349
      f+2     :     0.000265
      f-2     :     0.000260
      f+3     :     0.000071
      f-3     :     0.000065

 10 N s       :     3.435628  s :     3.435628
      pz      :     1.215720  p :     3.488025
      px      :     1.011686
      py      :     1.260619
      dz2     :     0.014404  d :     0.082967
      dxz     :     0.021054
      dyz     :     0.010091
      dx2y2   :     0.017055
      dxy     :     0.020362
      f0      :     0.000489  f :     0.004755
      f+1     :     0.000655
      f-1     :     0.000629
      f+2     :     0.000914
      f-2     :     0.000746
      f+3     :     0.000603
      f-3     :     0.000719

 11 C s       :     3.076953  s :     3.076953
      pz      :     0.981672  p :     2.657519
      px      :     0.756102
      py      :     0.919745
      dz2     :     0.023236  d :     0.131744
      dxz     :     0.027286
      dyz     :     0.016917
      dx2y2   :     0.036130
      dxy     :     0.028175
      f0      :     0.001059  f :     0.012280
      f+1     :     0.001744
      f-1     :     0.001419
      f+2     :     0.002056
      f-2     :     0.001536
      f+3     :     0.001818
      f-3     :     0.002649

 12 C s       :     3.252507  s :     3.252507
      pz      :     0.990673  p :     2.832927
      px      :     0.911966
      py      :     0.930288
      dz2     :     0.007711  d :     0.080478
      dxz     :     0.020658
      dyz     :     0.011566
      dx2y2   :     0.018894
      dxy     :     0.021649
      f0      :     0.000533  f :     0.007396
      f+1     :     0.001140
      f-1     :     0.000842
      f+2     :     0.001015
      f-2     :     0.001202
      f+3     :     0.001033
      f-3     :     0.001632

 13 C s       :     3.249046  s :     3.249046
      pz      :     0.933615  p :     2.860771
      px      :     0.950009
      py      :     0.977147
      dz2     :     0.016239  d :     0.079914
      dxz     :     0.017463
      dyz     :     0.008387
      dx2y2   :     0.013545
      dxy     :     0.024280
      f0      :     0.000678  f :     0.007300
      f+1     :     0.001013
      f-1     :     0.000980
      f+2     :     0.001297
      f-2     :     0.001090
      f+3     :     0.000987
      f-3     :     0.001255

 14 C s       :     3.218689  s :     3.218689
      pz      :     0.863661  p :     2.487183
      px      :     0.740343
      py      :     0.883180
      dz2     :     0.021438  d :     0.119401
      dxz     :     0.025369
      dyz     :     0.016308
      dx2y2   :     0.028318
      dxy     :     0.027969
      f0      :     0.000796  f :     0.009865
      f+1     :     0.001221
      f-1     :     0.001389
      f+2     :     0.001549
      f-2     :     0.001419
      f+3     :     0.001395
      f-3     :     0.002095

 15 C s       :     3.252166  s :     3.252166
      pz      :     0.891195  p :     2.470816
      px      :     0.716257
      py      :     0.863364
      dz2     :     0.014613  d :     0.116933
      dxz     :     0.021208
      dyz     :     0.020427
      dx2y2   :     0.029314
      dxy     :     0.031371
      f0      :     0.000951  f :     0.009814
      f+1     :     0.001005
      f-1     :     0.001171
      f+2     :     0.001020
      f-2     :     0.001460
      f+3     :     0.001654
      f-3     :     0.002553

 16 C s       :     3.237854  s :     3.237854
      pz      :     0.978819  p :     2.876968
      px      :     0.926263
      py      :     0.971886
      dz2     :     0.006470  d :     0.080031
      dxz     :     0.018480
      dyz     :     0.010765
      dx2y2   :     0.021142
      dxy     :     0.023174
      f0      :     0.000943  f :     0.007270
      f+1     :     0.001058
      f-1     :     0.000419
      f+2     :     0.000760
      f-2     :     0.001107
      f+3     :     0.001174
      f-3     :     0.001809

 17 C s       :     3.203973  s :     3.203973
      pz      :     0.953368  p :     2.818449
      px      :     0.923781
      py      :     0.941300
      dz2     :     0.012458  d :     0.079265
      dxz     :     0.014539
      dyz     :     0.009581
      dx2y2   :     0.016692
      dxy     :     0.025995
      f0      :     0.000540  f :     0.007273
      f+1     :     0.001078
      f-1     :     0.001202
      f+2     :     0.000993
      f-2     :     0.000665
      f+3     :     0.001223
      f-3     :     0.001572

 18 C s       :     3.196758  s :     3.196758
      pz      :     0.958082  p :     2.820963
      px      :     0.960413
      py      :     0.902468
      dz2     :     0.008555  d :     0.077770
      dxz     :     0.008187
      dyz     :     0.018357
      dx2y2   :     0.025541
      dxy     :     0.017130
      f0      :     0.000867  f :     0.007249
      f+1     :     0.000512
      f-1     :     0.001187
      f+2     :     0.000624
      f-2     :     0.001191
      f+3     :     0.001258
      f-3     :     0.001610

 19 C s       :     3.203337  s :     3.203337
      pz      :     0.962800  p :     2.818810
      px      :     0.907772
      py      :     0.948238
      dz2     :     0.006384  d :     0.079267
      dxz     :     0.018073
      dyz     :     0.010746
      dx2y2   :     0.022397
      dxy     :     0.021666
      f0      :     0.000959  f :     0.007271
      f+1     :     0.001049
      f-1     :     0.000446
      f+2     :     0.000768
      f-2     :     0.001120
      f+3     :     0.001088
      f-3     :     0.001841

 20 C s       :     3.238881  s :     3.238881
      pz      :     0.958968  p :     2.876535
      px      :     0.956988
      py      :     0.960579
      dz2     :     0.012780  d :     0.080016
      dxz     :     0.014163
      dyz     :     0.009370
      dx2y2   :     0.016218
      dxy     :     0.027486
      f0      :     0.000543  f :     0.007271
      f+1     :     0.001096
      f-1     :     0.001127
      f+2     :     0.001005
      f-2     :     0.000697
      f+3     :     0.001217
      f-3     :     0.001586

 21 C s       :     3.249812  s :     3.249812
      pz      :     0.969273  p :     2.863847
      px      :     0.922723
      py      :     0.971851
      dz2     :     0.007924  d :     0.079870
      dxz     :     0.019277
      dyz     :     0.011872
      dx2y2   :     0.018699
      dxy     :     0.022098
      f0      :     0.000499  f :     0.007297
      f+1     :     0.001117
      f-1     :     0.000824
      f+2     :     0.001050
      f-2     :     0.001176
      f+3     :     0.001013
      f-3     :     0.001619

 22 C s       :     3.253372  s :     3.253372
      pz      :     0.984324  p :     2.830572
      px      :     0.905087
      py      :     0.941162
      dz2     :     0.017280  d :     0.080423
      dxz     :     0.015617
      dyz     :     0.009298
      dx2y2   :     0.014729
      dxy     :     0.023500
      f0      :     0.000731  f :     0.007408
      f+1     :     0.001052
      f-1     :     0.001066
      f+2     :     0.001237
      f-2     :     0.001122
      f+3     :     0.001021
      f-3     :     0.001178

 23 C s       :     3.139508  s :     3.139508
      pz      :     0.761914  p :     2.389728
      px      :     0.870969
      py      :     0.756846
      dz2     :     0.070845  d :     0.239227
      dxz     :     0.043297
      dyz     :     0.030001
      dx2y2   :     0.052557
      dxy     :     0.042527
      f0      :     0.002844  f :     0.021927
      f+1     :     0.002447
      f-1     :     0.003731
      f+2     :     0.004837
      f-2     :     0.003111
      f+3     :     0.002015
      f-3     :     0.002942

 24 O s       :     3.831292  s :     3.831292
      pz      :     1.407033  p :     4.461548
      px      :     1.692346
      py      :     1.362169
      dz2     :     0.007660  d :     0.029675
      dxz     :     0.005460
      dyz     :     0.006461
      dx2y2   :     0.005564
      dxy     :     0.004531
      f0      :     0.000197  f :     0.001703
      f+1     :     0.000240
      f-1     :     0.000296
      f+2     :     0.000326
      f-2     :     0.000288
      f+3     :     0.000174
      f-3     :     0.000181

 25 C s       :     3.115053  s :     3.115053
      pz      :     0.961397  p :     2.746466
      px      :     0.904182
      py      :     0.880887
      dz2     :     0.019073  d :     0.114402
      dxz     :     0.015897
      dyz     :     0.022157
      dx2y2   :     0.033636
      dxy     :     0.023639
      f0      :     0.000867  f :     0.008068
      f+1     :     0.000842
      f-1     :     0.001230
      f+2     :     0.001399
      f-2     :     0.000828
      f+3     :     0.001501
      f-3     :     0.001400

 26 C s       :     3.334591  s :     3.334591
      pz      :     1.044491  p :     2.922917
      px      :     0.921445
      py      :     0.956982
      dz2     :     0.010554  d :     0.081457
      dxz     :     0.017474
      dyz     :     0.016304
      dx2y2   :     0.020614
      dxy     :     0.016511
      f0      :     0.000249  f :     0.005832
      f+1     :     0.000801
      f-1     :     0.000741
      f+2     :     0.001248
      f-2     :     0.000937
      f+3     :     0.000853
      f-3     :     0.001002

 27 C s       :     3.078269  s :     3.078269
      pz      :     0.910781  p :     2.755507
      px      :     0.911692
      py      :     0.933034
      dz2     :     0.016826  d :     0.118051
      dxz     :     0.029992
      dyz     :     0.021587
      dx2y2   :     0.023725
      dxy     :     0.025921
      f0      :     0.000473  f :     0.008395
      f+1     :     0.001050
      f-1     :     0.001290
      f+2     :     0.001448
      f-2     :     0.001717
      f+3     :     0.001323
      f-3     :     0.001094

 28 H s       :     0.735210  s :     0.735210
      pz      :     0.013031  p :     0.037610
      px      :     0.017639
      py      :     0.006940

 29 H s       :     0.858085  s :     0.858085
      pz      :     0.009563  p :     0.022647
      px      :     0.008580
      py      :     0.004504

 30 H s       :     0.873395  s :     0.873395
      pz      :     0.007921  p :     0.021738
      px      :     0.008519
      py      :     0.005299

 31 H s       :     0.849752  s :     0.849752
      pz      :     0.007871  p :     0.022563
      px      :     0.004384
      py      :     0.010309

 32 H s       :     0.872333  s :     0.872333
      pz      :     0.008745  p :     0.022762
      px      :     0.004546
      py      :     0.009471

 33 H s       :     0.823661  s :     0.823661
      pz      :     0.009268  p :     0.024065
      px      :     0.005503
      py      :     0.009294

 34 H s       :     0.852282  s :     0.852282
      pz      :     0.005486  p :     0.022289
      px      :     0.006933
      py      :     0.009870

 35 H s       :     0.858335  s :     0.858335
      pz      :     0.006312  p :     0.022270
      px      :     0.004694
      py      :     0.011264

 36 H s       :     0.868639  s :     0.868639
      pz      :     0.004624  p :     0.022246
      px      :     0.007556
      py      :     0.010066

 37 H s       :     0.868566  s :     0.868566
      pz      :     0.005572  p :     0.022222
      px      :     0.012927
      py      :     0.003723

 38 H s       :     0.868262  s :     0.868262
      pz      :     0.006252  p :     0.022246
      px      :     0.004788
      py      :     0.011206

 39 H s       :     0.858098  s :     0.858098
      pz      :     0.004737  p :     0.022270
      px      :     0.007372
      py      :     0.010160

 40 H s       :     0.852436  s :     0.852436
      pz      :     0.008557  p :     0.022295
      px      :     0.004849
      py      :     0.008890

 41 H s       :     0.828298  s :     0.828298
      pz      :     0.005531  p :     0.023882
      px      :     0.008010
      py      :     0.010340

 42 H s       :     0.887816  s :     0.887816
      pz      :     0.013098  p :     0.022394
      px      :     0.005054
      py      :     0.004241

 43 H s       :     0.855368  s :     0.855368
      pz      :     0.009308  p :     0.021808
      px      :     0.006785
      py      :     0.005715

 44 H s       :     0.844092  s :     0.844092
      pz      :     0.007327  p :     0.022269
      px      :     0.004244
      py      :     0.010698

 45 H s       :     0.883416  s :     0.883416
      pz      :     0.010692  p :     0.022529
      px      :     0.007061
      py      :     0.004776



                     *******************************
                     * LOEWDIN POPULATION ANALYSIS *
                     *******************************

----------------------
LOEWDIN ATOMIC CHARGES
----------------------
   0 O :    0.104687
   1 C :   -0.384608
   2 N :    0.225980
   3 C :   -0.382991
   4 O :    0.106961
   5 C :   -0.174617
   6 C :   -0.182590
   7 C :   -0.167863
   8 C :   -0.336781
   9 O :    0.112685
  10 N :    0.313075
  11 C :   -0.144509
  12 C :   -0.097093
  13 C :   -0.092138
  14 C :   -0.104553
  15 C :   -0.101464
  16 C :   -0.098074
  17 C :   -0.136980
  18 C :   -0.141482
  19 C :   -0.136831
  20 C :   -0.097892
  21 C :   -0.092504
  22 C :   -0.097412
  23 C :   -0.336563
  24 O :    0.111895
  25 C :   -0.162597
  26 C :   -0.174851
  27 C :   -0.176815
  28 H :    0.197610
  29 H :    0.180816
  30 H :    0.146359
  31 H :    0.155419
  32 H :    0.175815
  33 H :    0.157483
  34 H :    0.151789
  35 H :    0.147849
  36 H :    0.143043
  37 H :    0.142469
  38 H :    0.143119
  39 H :    0.147985
  40 H :    0.151691
  41 H :    0.156898
  42 H :    0.164595
  43 H :    0.150397
  44 H :    0.154609
  45 H :    0.177982

-------------------------------
LOEWDIN REDUCED ORBITAL CHARGES
-------------------------------
  0 O s       :     3.406197  s :     3.406197
      pz      :     1.468084  p :     4.416831
      px      :     1.470567
      py      :     1.478180
      dz2     :     0.008315  d :     0.066346
      dxz     :     0.000214
      dyz     :     0.016628
      dx2y2   :     0.024255
      dxy     :     0.016935
      f0      :     0.000582  f :     0.005939
      f+1     :     0.000091
      f-1     :     0.001064
      f+2     :     0.000967
      f-2     :     0.000049
      f+3     :     0.001469
      f-3     :     0.001716

  1 C s       :     2.727252  s :     2.727252
      pz      :     0.833164  p :     2.650034
      px      :     0.844035
      py      :     0.972835
      dz2     :     0.127239  d :     0.879192
      dxz     :     0.057662
      dyz     :     0.255181
      dx2y2   :     0.173342
      dxy     :     0.265768
      f0      :     0.015424  f :     0.128130
      f+1     :     0.008984
      f-1     :     0.017334
      f+2     :     0.025821
      f-2     :     0.009288
      f+3     :     0.031463
      f-3     :     0.019817

  2 N s       :     2.909637  s :     2.909637
      pz      :     1.266932  p :     3.632473
      px      :     1.198517
      py      :     1.167024
      dz2     :     0.023703  d :     0.215305
      dxz     :     0.031317
      dyz     :     0.045426
      dx2y2   :     0.056446
      dxy     :     0.058412
      f0      :     0.001911  f :     0.016606
      f+1     :     0.001479
      f-1     :     0.001847
      f+2     :     0.002847
      f-2     :     0.002388
      f+3     :     0.003146
      f-3     :     0.002987

  3 C s       :     2.727328  s :     2.727328
      pz      :     0.787192  p :     2.648869
      px      :     0.937137
      py      :     0.924541
      dz2     :     0.091104  d :     0.878716
      dxz     :     0.106834
      dyz     :     0.175707
      dx2y2   :     0.287887
      dxy     :     0.217185
      f0      :     0.009482  f :     0.128078
      f+1     :     0.007451
      f-1     :     0.015712
      f+2     :     0.015990
      f-2     :     0.019897
      f+3     :     0.020659
      f-3     :     0.038886

  4 O s       :     3.406205  s :     3.406205
      pz      :     1.353497  p :     4.414562
      px      :     1.533869
      py      :     1.527197
      dz2     :     0.007742  d :     0.066332
      dxz     :     0.007550
      dyz     :     0.015145
      dx2y2   :     0.016961
      dxy     :     0.018934
      f0      :     0.000517  f :     0.005940
      f+1     :     0.000225
      f-1     :     0.000741
      f+2     :     0.000738
      f-2     :     0.001173
      f+3     :     0.001309
      f-3     :     0.001236

  5 C s       :     2.710465  s :     2.710465
      pz      :     0.968679  p :     2.909140
      px      :     0.963671
      py      :     0.976790
      dz2     :     0.071460  d :     0.499271
      dxz     :     0.123152
      dyz     :     0.105054
      dx2y2   :     0.116380
      dxy     :     0.083224
      f0      :     0.005361  f :     0.055741
      f+1     :     0.006106
      f-1     :     0.010876
      f+2     :     0.007646
      f-2     :     0.008526
      f+3     :     0.009163
      f-3     :     0.008063

  6 C s       :     2.763536  s :     2.763536
      pz      :     1.012881  p :     3.001372
      px      :     0.982538
      py      :     1.005952
      dz2     :     0.041764  d :     0.378996
      dxz     :     0.093243
      dyz     :     0.092081
      dx2y2   :     0.086721
      dxy     :     0.065188
      f0      :     0.003827  f :     0.038686
      f+1     :     0.006350
      f-1     :     0.005353
      f+2     :     0.005975
      f-2     :     0.004744
      f+3     :     0.005371
      f-3     :     0.007066

  7 C s       :     2.717896  s :     2.717896
      pz      :     0.984514  p :     2.913960
      px      :     0.966947
      py      :     0.962499
      dz2     :     0.059396  d :     0.483426
      dxz     :     0.113736
      dyz     :     0.109202
      dx2y2   :     0.116484
      dxy     :     0.084607
      f0      :     0.005327  f :     0.052581
      f+1     :     0.008612
      f-1     :     0.006860
      f+2     :     0.007621
      f-2     :     0.007341
      f+3     :     0.009125
      f-3     :     0.007695

  8 C s       :     2.724155  s :     2.724155
      pz      :     0.919694  p :     2.630722
      px      :     0.902960
      py      :     0.808068
      dz2     :     0.190368  d :     0.858211
      dxz     :     0.244360
      dyz     :     0.162694
      dx2y2   :     0.124591
      dxy     :     0.136198
      f0      :     0.019555  f :     0.123692
      f+1     :     0.024668
      f-1     :     0.018606
      f+2     :     0.013908
      f-2     :     0.023336
      f+3     :     0.012632
      f-3     :     0.010988

  9 O s       :     3.403749  s :     3.403749
      pz      :     1.434521  p :     4.411060
      px      :     1.585767
      py      :     1.390771
      dz2     :     0.019619  d :     0.066660
      dxz     :     0.013221
      dyz     :     0.022535
      dx2y2   :     0.005700
      dxy     :     0.005584
      f0      :     0.001043  f :     0.005847
      f+1     :     0.000728
      f-1     :     0.001877
      f+2     :     0.000986
      f-2     :     0.000891
      f+3     :     0.000168
      f-3     :     0.000154

 10 N s       :     2.855600  s :     2.855600
      pz      :     1.193733  p :     3.520361
      px      :     1.124446
      py      :     1.202182
      dz2     :     0.048023  d :     0.291360
      dxz     :     0.074695
      dyz     :     0.039275
      dx2y2   :     0.057739
      dxy     :     0.071628
      f0      :     0.002032  f :     0.019604
      f+1     :     0.003267
      f-1     :     0.002198
      f+2     :     0.003076
      f-2     :     0.003010
      f+3     :     0.002005
      f-3     :     0.004016

 11 C s       :     2.701243  s :     2.701243
      pz      :     0.945875  p :     2.811891
      px      :     0.848970
      py      :     1.017046
      dz2     :     0.083619  d :     0.562153
      dxz     :     0.110193
      dyz     :     0.079299
      dx2y2   :     0.155509
      dxy     :     0.133533
      f0      :     0.006755  f :     0.069222
      f+1     :     0.010254
      f-1     :     0.004997
      f+2     :     0.011603
      f-2     :     0.008520
      f+3     :     0.010563
      f-3     :     0.016530

 12 C s       :     2.764118  s :     2.764118
      pz      :     0.932842  p :     2.922679
      px      :     1.026539
      py      :     0.963298
      dz2     :     0.032574  d :     0.368911
      dxz     :     0.078216
      dyz     :     0.056311
      dx2y2   :     0.098596
      dxy     :     0.103214
      f0      :     0.003384  f :     0.041385
      f+1     :     0.006694
      f-1     :     0.002998
      f+2     :     0.006081
      f-2     :     0.005355
      f+3     :     0.006311
      f-3     :     0.010562

 13 C s       :     2.761254  s :     2.761254
      pz      :     0.942415  p :     2.914542
      px      :     1.012094
      py      :     0.960034
      dz2     :     0.057532  d :     0.374818
      dxz     :     0.085453
      dyz     :     0.044718
      dx2y2   :     0.077546
      dxy     :     0.109570
      f0      :     0.004582  f :     0.041524
      f+1     :     0.004888
      f-1     :     0.004292
      f+2     :     0.007903
      f-2     :     0.005493
      f+3     :     0.005845
      f-3     :     0.008520

 14 C s       :     2.698932  s :     2.698932
      pz      :     0.904512  p :     2.835191
      px      :     0.955155
      py      :     0.975525
      dz2     :     0.078045  d :     0.512832
      dxz     :     0.099167
      dyz     :     0.078022
      dx2y2   :     0.134400
      dxy     :     0.123198
      f0      :     0.005412  f :     0.057598
      f+1     :     0.007510
      f-1     :     0.005423
      f+2     :     0.009249
      f-2     :     0.008232
      f+3     :     0.008024
      f-3     :     0.013749

 15 C s       :     2.700690  s :     2.700690
      pz      :     0.863853  p :     2.839632
      px      :     0.955123
      py      :     1.020656
      dz2     :     0.052458  d :     0.504746
      dxz     :     0.076653
      dyz     :     0.078615
      dx2y2   :     0.154893
      dxy     :     0.142128
      f0      :     0.004468  f :     0.056396
      f+1     :     0.005201
      f-1     :     0.004840
      f+2     :     0.006449
      f-2     :     0.008946
      f+3     :     0.009874
      f-3     :     0.016619

 16 C s       :     2.762273  s :     2.762273
      pz      :     0.909181  p :     2.919352
      px      :     1.030617
      py      :     0.979554
      dz2     :     0.026347  d :     0.374906
      dxz     :     0.068627
      dyz     :     0.046280
      dx2y2   :     0.118781
      dxy     :     0.114872
      f0      :     0.003843  f :     0.041544
      f+1     :     0.005341
      f-1     :     0.001844
      f+2     :     0.004885
      f-2     :     0.005903
      f+3     :     0.007585
      f-3     :     0.012142

 17 C s       :     2.768677  s :     2.768677
      pz      :     0.916901  p :     2.943479
      px      :     1.023637
      py      :     1.002941
      dz2     :     0.048074  d :     0.382129
      dxz     :     0.061560
      dyz     :     0.040638
      dx2y2   :     0.090735
      dxy     :     0.141123
      f0      :     0.003243  f :     0.042694
      f+1     :     0.004243
      f-1     :     0.004460
      f+2     :     0.007193
      f-2     :     0.004811
      f+3     :     0.007658
      f-3     :     0.011085

 18 C s       :     2.767821  s :     2.767821
      pz      :     0.910166  p :     2.946121
      px      :     0.983650
      py      :     1.052306
      dz2     :     0.034584  d :     0.384375
      dxz     :     0.037381
      dyz     :     0.074315
      dx2y2   :     0.143511
      dxy     :     0.094584
      f0      :     0.004042  f :     0.043165
      f+1     :     0.002513
      f-1     :     0.005026
      f+2     :     0.003920
      f-2     :     0.007685
      f+3     :     0.008282
      f-3     :     0.011697

 19 C s       :     2.768685  s :     2.768685
      pz      :     0.905294  p :     2.943352
      px      :     1.044186
      py      :     0.993871
      dz2     :     0.027033  d :     0.382100
      dxz     :     0.069000
      dyz     :     0.047186
      dx2y2   :     0.122072
      dxy     :     0.116808
      f0      :     0.003927  f :     0.042693
      f+1     :     0.005462
      f-1     :     0.001964
      f+2     :     0.005023
      f-2     :     0.006033
      f+3     :     0.007648
      f-3     :     0.012636

 20 C s       :     2.762285  s :     2.762285
      pz      :     0.916495  p :     2.919198
      px      :     1.018343
      py      :     0.984360
      dz2     :     0.047455  d :     0.374865
      dxz     :     0.059043
      dyz     :     0.038684
      dx2y2   :     0.090261
      dxy     :     0.139422
      f0      :     0.003179  f :     0.041543
      f+1     :     0.004209
      f-1     :     0.004220
      f+2     :     0.006987
      f-2     :     0.004727
      f+3     :     0.007421
      f-3     :     0.010800

 21 C s       :     2.761184  s :     2.761184
      pz      :     0.928923  p :     2.914926
      px      :     1.021026
      py      :     0.964977
      dz2     :     0.034857  d :     0.374850
      dxz     :     0.076080
      dyz     :     0.058474
      dx2y2   :     0.099492
      dxy     :     0.105946
      f0      :     0.003250  f :     0.041544
      f+1     :     0.006596
      f-1     :     0.002975
      f+2     :     0.006334
      f-2     :     0.005477
      f+3     :     0.006108
      f-3     :     0.010804

 22 C s       :     2.763995  s :     2.763995
      pz      :     0.938079  p :     2.922751
      px      :     1.022779
      py      :     0.961894
      dz2     :     0.060906  d :     0.369274
      dxz     :     0.079256
      dyz     :     0.044632
      dx2y2   :     0.076863
      dxy     :     0.107617
      f0      :     0.004899  f :     0.041392
      f+1     :     0.004909
      f-1     :     0.004532
      f+2     :     0.007676
      f-2     :     0.005493
      f+3     :     0.006039
      f-3     :     0.007844

 23 C s       :     2.723051  s :     2.723051
      pz      :     0.846679  p :     2.631993
      px      :     0.964843
      py      :     0.820472
      dz2     :     0.207822  d :     0.857417
      dxz     :     0.164040
      dyz     :     0.156401
      dx2y2   :     0.169007
      dxy     :     0.160146
      f0      :     0.015697  f :     0.124101
      f+1     :     0.014806
      f-1     :     0.019549
      f+2     :     0.026196
      f-2     :     0.016751
      f+3     :     0.012340
      f-3     :     0.018762

 24 O s       :     3.405977  s :     3.405977
      pz      :     1.420231  p :     4.409955
      px      :     1.606430
      py      :     1.383294
      dz2     :     0.012123  d :     0.066347
      dxz     :     0.013051
      dyz     :     0.018637
      dx2y2   :     0.010047
      dxy     :     0.012489
      f0      :     0.000604  f :     0.005826
      f+1     :     0.000574
      f-1     :     0.001127
      f+2     :     0.001038
      f-2     :     0.001414
      f+3     :     0.000522
      f-3     :     0.000547

 25 C s       :     2.718664  s :     2.718664
      pz      :     0.982777  p :     2.909841
      px      :     0.956815
      py      :     0.970249
      dz2     :     0.104055  d :     0.480836
      dxz     :     0.069089
      dyz     :     0.084507
      dx2y2   :     0.132146
      dxy     :     0.091040
      f0      :     0.004538  f :     0.053257
      f+1     :     0.005807
      f-1     :     0.007431
      f+2     :     0.009118
      f-2     :     0.006187
      f+3     :     0.010590
      f-3     :     0.009586

 26 C s       :     2.763936  s :     2.763936
      pz      :     1.018997  p :     2.989304
      px      :     0.979223
      py      :     0.991084
      dz2     :     0.044236  d :     0.382619
      dxz     :     0.085437
      dyz     :     0.089935
      dx2y2   :     0.090512
      dxy     :     0.072499
      f0      :     0.003210  f :     0.038992
      f+1     :     0.006855
      f-1     :     0.004550
      f+2     :     0.005503
      f-2     :     0.004296
      f+3     :     0.006459
      f-3     :     0.008119

 27 C s       :     2.710051  s :     2.710051
      pz      :     0.962335  p :     2.907507
      px      :     0.978341
      py      :     0.966831
      dz2     :     0.069931  d :     0.503279
      dxz     :     0.129465
      dyz     :     0.099454
      dx2y2   :     0.096696
      dxy     :     0.107733
      f0      :     0.004674  f :     0.055978
      f+1     :     0.008258
      f-1     :     0.009314
      f+2     :     0.007677
      f-2     :     0.009750
      f+3     :     0.008764
      f-3     :     0.007542

 28 H s       :     0.698066  s :     0.698066
      pz      :     0.035713  p :     0.104325
      px      :     0.047962
      py      :     0.020650

 29 H s       :     0.761593  s :     0.761593
      pz      :     0.023051  p :     0.057591
      px      :     0.021283
      py      :     0.013257

 30 H s       :     0.795791  s :     0.795791
      pz      :     0.022036  p :     0.057850
      px      :     0.021809
      py      :     0.014004

 31 H s       :     0.784409  s :     0.784409
      pz      :     0.022043  p :     0.060172
      px      :     0.012297
      py      :     0.025832

 32 H s       :     0.766901  s :     0.766901
      pz      :     0.021578  p :     0.057284
      px      :     0.013104
      py      :     0.022602

 33 H s       :     0.778322  s :     0.778322
      pz      :     0.024150  p :     0.064195
      px      :     0.015168
      py      :     0.024877

 34 H s       :     0.789881  s :     0.789881
      pz      :     0.014938  p :     0.058330
      px      :     0.018256
      py      :     0.025136

 35 H s       :     0.793749  s :     0.793749
      pz      :     0.016967  p :     0.058402
      px      :     0.013126
      py      :     0.028308

 36 H s       :     0.799071  s :     0.799071
      pz      :     0.012946  p :     0.057886
      px      :     0.019618
      py      :     0.025322

 37 H s       :     0.799658  s :     0.799658
      pz      :     0.015073  p :     0.057873
      px      :     0.031727
      py      :     0.011072

 38 H s       :     0.798994  s :     0.798994
      pz      :     0.016606  p :     0.057887
      px      :     0.013407
      py      :     0.027874

 39 H s       :     0.793609  s :     0.793609
      pz      :     0.013302  p :     0.058406
      px      :     0.019360
      py      :     0.025744

 40 H s       :     0.789971  s :     0.789971
      pz      :     0.022058  p :     0.058339
      px      :     0.013409
      py      :     0.022872

 41 H s       :     0.779460  s :     0.779460
      pz      :     0.015448  p :     0.063641
      px      :     0.020836
      py      :     0.027358

 42 H s       :     0.778513  s :     0.778513
      pz      :     0.031016  p :     0.056892
      px      :     0.013735
      py      :     0.012141

 43 H s       :     0.791245  s :     0.791245
      pz      :     0.025726  p :     0.058358
      px      :     0.017989
      py      :     0.014643

 44 H s       :     0.786369  s :     0.786369
      pz      :     0.020652  p :     0.059021
      px      :     0.012209
      py      :     0.026161

 45 H s       :     0.765257  s :     0.765257
      pz      :     0.024839  p :     0.056761
      px      :     0.018020
      py      :     0.013902



                      *****************************
                      * MAYER POPULATION ANALYSIS *
                      *****************************

  NA   - Mulliken gross atomic population
  ZA   - Total nuclear charge
  QA   - Mulliken gross atomic charge
  VA   - Mayer's total valence
  BVA  - Mayer's bonded valence
  FA   - Mayer's free valence

  ATOM       NA         ZA         QA         VA         BVA        FA
  0 O      8.2920     8.0000    -0.2920     2.2053     2.2053     0.0000
  1 C      5.8061     6.0000     0.1939     4.3358     4.3358    -0.0000
  2 N      7.1872     7.0000    -0.1872     3.1238     3.1238     0.0000
  3 C      5.8129     6.0000     0.1871     4.3349     4.3349     0.0000
  4 O      8.2883     8.0000    -0.2883     2.2098     2.2098     0.0000
  5 C      6.0710     6.0000    -0.0710     3.7003     3.7003     0.0000
  6 C      6.2228     6.0000    -0.2228     4.0211     4.0211    -0.0000
  7 C      5.9092     6.0000     0.0908     3.7515     3.7515     0.0000
  8 C      5.8752     6.0000     0.1248     4.2359     4.2359     0.0000
  9 O      8.3308     8.0000    -0.3308     2.1452     2.1452     0.0000
 10 N      7.0114     7.0000    -0.0114     3.1955     3.1955    -0.0000
 11 C      5.8785     6.0000     0.1215     3.9368     3.9368    -0.0000
 12 C      6.1733     6.0000    -0.1733     3.9004     3.9004    -0.0000
 13 C      6.1970     6.0000    -0.1970     3.9190     3.9190    -0.0000
 14 C      5.8351     6.0000     0.1649     3.6314     3.6314     0.0000
 15 C      5.8497     6.0000     0.1503     3.6134     3.6134     0.0000
 16 C      6.2021     6.0000    -0.2021     3.9411     3.9411    -0.0000
 17 C      6.1090     6.0000    -0.1090     3.9099     3.9099    -0.0000
 18 C      6.1027     6.0000    -0.1027     3.9133     3.9133     0.0000
 19 C      6.1087     6.0000    -0.1087     3.9096     3.9096     0.0000
 20 C      6.2027     6.0000    -0.2027     3.9415     3.9415    -0.0000
 21 C      6.2008     6.0000    -0.2008     3.9269     3.9269     0.0000
 22 C      6.1718     6.0000    -0.1718     3.9078     3.9078    -0.0000
 23 C      5.7904     6.0000     0.2096     4.1957     4.1957     0.0000
 24 O      8.3242     8.0000    -0.3242     2.1512     2.1512     0.0000
 25 C      5.9840     6.0000     0.0160     3.8757     3.8757    -0.0000
 26 C      6.3448     6.0000    -0.3448     3.9988     3.9988     0.0000
 27 C      5.9602     6.0000     0.0398     3.5833     3.5833    -0.0000
 28 H      0.7728     1.0000     0.2272     0.9734     0.9734    -0.0000
 29 H      0.8807     1.0000     0.1193     0.9794     0.9794     0.0000
 30 H      0.8951     1.0000     0.1049     0.9721     0.9721     0.0000
 31 H      0.8723     1.0000     0.1277     0.9978     0.9978    -0.0000
 32 H      0.8951     1.0000     0.1049     0.9638     0.9638     0.0000
 33 H      0.8477     1.0000     0.1523     1.0060     1.0060     0.0000
 34 H      0.8746     1.0000     0.1254     0.9747     0.9747    -0.0000
 35 H      0.8806     1.0000     0.1194     0.9733     0.9733    -0.0000
 36 H      0.8909     1.0000     0.1091     0.9707     0.9707    -0.0000
 37 H      0.8908     1.0000     0.1092     0.9689     0.9689     0.0000
 38 H      0.8905     1.0000     0.1095     0.9706     0.9706     0.0000
 39 H      0.8804     1.0000     0.1196     0.9734     0.9734    -0.0000
 40 H      0.8747     1.0000     0.1253     0.9745     0.9745     0.0000
 41 H      0.8522     1.0000     0.1478     1.0029     1.0029    -0.0000
 42 H      0.9102     1.0000     0.0898     0.9792     0.9792    -0.0000
 43 H      0.8772     1.0000     0.1228     0.9725     0.9725     0.0000
 44 H      0.8664     1.0000     0.1336     0.9875     0.9875    -0.0000
 45 H      0.9059     1.0000     0.0941     0.9807     0.9807    -0.0000

  Mayer bond orders larger than 0.100000
B(  0-O ,  1-C ) :   2.1776 B(  1-C ,  2-N ) :   1.1396 B(  1-C , 27-C ) :   0.9112 
B(  2-N ,  3-C ) :   1.1357 B(  2-N , 28-H ) :   0.8973 B(  3-C ,  4-O ) :   2.1908 
B(  3-C ,  5-C ) :   0.9093 B(  5-C ,  6-C ) :   1.0013 B(  5-C , 27-C ) :   0.9032 
B(  5-C , 29-H ) :   0.9285 B(  6-C ,  7-C ) :   0.9518 B(  6-C , 30-H ) :   0.9622 
B(  6-C , 31-H ) :   0.9426 B(  7-C ,  8-C ) :   0.9736 B(  7-C , 25-C ) :   0.9477 
B(  7-C , 32-H ) :   0.9262 B(  8-C ,  9-O ) :   2.0158 B(  8-C , 10-N ) :   1.0725 
B( 10-N , 11-C ) :   1.0162 B( 10-N , 23-C ) :   1.0735 B( 11-C , 12-C ) :   1.3972 
B( 11-C , 22-C ) :   1.3911 B( 12-C , 13-C ) :   1.4205 B( 12-C , 33-H ) :   0.9343 
B( 13-C , 14-C ) :   1.3542 B( 13-C , 34-H ) :   0.9749 B( 14-C , 15-C ) :   0.8772 
B( 14-C , 21-C ) :   1.3529 B( 15-C , 16-C ) :   1.3591 B( 15-C , 20-C ) :   1.3587 
B( 16-C , 17-C ) :   1.4263 B( 16-C , 35-H ) :   0.9642 B( 17-C , 18-C ) :   1.4033 
B( 17-C , 36-H ) :   0.9700 B( 18-C , 19-C ) :   1.4033 B( 18-C , 37-H ) :   0.9658 
B( 19-C , 20-C ) :   1.4263 B( 19-C , 38-H ) :   0.9697 B( 20-C , 39-H ) :   0.9645 
B( 21-C , 22-C ) :   1.4256 B( 21-C , 40-H ) :   0.9744 B( 22-C , 41-H ) :   0.9383 
B( 23-C , 24-O ) :   2.0359 B( 23-C , 25-C ) :   0.9739 B( 25-C , 26-C ) :   0.9559 
B( 25-C , 42-H ) :   0.9395 B( 26-C , 27-C ) :   0.9336 B( 26-C , 43-H ) :   0.9563 
B( 26-C , 44-H ) :   0.9714 B( 27-C , 45-H ) :   0.9224 

-------
TIMINGS
-------

Total SCF time: 0 days 0 hours 1 min 12 sec 

Total time                  ....      72.826 sec
Sum of individual times     ....      70.569 sec  ( 96.9%)

SCF preparation             ....       0.340 sec  (  0.5%)
Fock matrix formation       ....      63.880 sec  ( 87.7%)
  Startup                   ....       0.063 sec  (  0.1% of F)
  Split-RI-J                ....       6.474 sec  ( 10.1% of F)
  Chain of spheres X        ....      52.956 sec  ( 82.9% of F)
  XC integration            ....       5.786 sec  (  9.1% of F)
    XC Preparation          ....       0.000 sec  (  0.0% of XC)
    Basis function eval.    ....       1.088 sec  ( 18.8% of XC)
    Density eval.           ....       1.646 sec  ( 28.5% of XC)
    XC-Functional eval.     ....       0.072 sec  (  1.2% of XC)
    XC-Potential eval.      ....       2.061 sec  ( 35.6% of XC)
Diagonalization             ....       0.000 sec  (  0.0%)
Density matrix formation    ....       0.500 sec  (  0.7%)
Total Energy calculation    ....       0.184 sec  (  0.3%)
Population analysis         ....       0.206 sec  (  0.3%)
Orbital Transformation      ....       0.619 sec  (  0.9%)
Orbital Orthonormalization  ....       0.000 sec  (  0.0%)
DIIS solution               ....       2.592 sec  (  3.6%)
SOSCF solution              ....       2.248 sec  (  3.1%)
Finished LeanSCF after  72.9 sec

Maximum memory used throughout the entire LEANSCF-calculation: 138.1 MB

-------------------------   --------------------
FINAL SINGLE POINT ENERGY     -1259.390567292185
-------------------------   --------------------



           ************************************************************
           *        Program running with 16 parallel MPI-processes    *
           *              working on a common directory               *
           ************************************************************
------------------------------------------------------------------------------
                         ORCA SCF GRADIENT CALCULATION
------------------------------------------------------------------------------

Nuc. rep. gradient        (SHARK) ... done (  0.0 sec)
HCore & Overlap gradient  (SHARK) ... done (  0.3 sec)
Split-RIJ-J gradient      (SHARK) ... done (  1.8 sec)
COSX-gradient                     ... done ( 19.2 sec)
XC gradient                       ... done (  2.4 sec)

------------------
CARTESIAN GRADIENT
------------------

   1   O   :    0.002413404   -0.013606119    0.006193018
   2   C   :   -0.003239790    0.040731547   -0.020321751
   3   N   :    0.012066630    0.005788471    0.007714761
   4   C   :    0.003248833   -0.042364131    0.018383526
   5   O   :   -0.002165903    0.014894446   -0.004550657
   6   C   :    0.002447926   -0.008670159   -0.013372518
   7   C   :    0.002894646   -0.012506821    0.004402920
   8   C   :    0.009921364   -0.000457178    0.007602332
   9   C   :    0.023359919   -0.028710082    0.027186826
  10   O   :   -0.012223079    0.015346109   -0.017887723
  11   N   :   -0.027229468    0.002385921    0.009263997
  12   C   :   -0.018326309    0.001143796    0.006060369
  13   C   :   -0.007410920    0.012312498   -0.001266853
  14   C   :    0.012072539   -0.003425025   -0.000224021
  15   C   :    0.006332919   -0.000226081   -0.002185527
  16   C   :   -0.012274330    0.000860105    0.004094522
  17   C   :   -0.003279892   -0.000909533    0.002297303
  18   C   :    0.005003371    0.001108516   -0.000887525
  19   C   :   -0.001625607    0.000121508    0.000534982
  20   C   :    0.004373628   -0.001753849   -0.002211736
  21   C   :   -0.003841303    0.001416356    0.000066741
  22   C   :    0.010477315    0.001510003   -0.007132309
  23   C   :   -0.006562218   -0.011092532    0.005630961
  24   C   :    0.008195331    0.028934809   -0.039650783
  25   O   :   -0.002546698   -0.016292175    0.021664307
  26   C   :    0.004508703   -0.010688945   -0.010497804
  27   C   :    0.001423991    0.014820533   -0.004711856
  28   C   :   -0.014760267    0.003190799    0.006466585
  29   H   :    0.001700111    0.000734915    0.001229256
  30   H   :    0.001018958    0.002766721   -0.002822756
  31   H   :   -0.001768030    0.001619437    0.001331141
  32   H   :   -0.003336248    0.001956940   -0.003812072
  33   H   :    0.000101929    0.003465436    0.000024535
  34   H   :    0.002251574   -0.007195568    0.002130716
  35   H   :    0.002626374   -0.003505053    0.001384939
  36   H   :    0.000637258    0.003589882    0.000946061
  37   H   :    0.002017650    0.001945768   -0.000117585
  38   H   :    0.002375917   -0.000173890   -0.000788637
  39   H   :    0.001424129   -0.002204499   -0.001020153
  40   H   :   -0.000519832   -0.003610714   -0.000996807
  41   H   :    0.001666469    0.003148394   -0.002852456
  42   H   :    0.001118856    0.007003366   -0.003035504
  43   H   :   -0.003411655    0.005869575    0.002400257
  44   H   :    0.001945771   -0.002817908   -0.000640291
  45   H   :   -0.002924370   -0.003632927    0.000850169
  46   H   :   -0.000179598   -0.002822661    0.003127100

Difference to translation invariance:
           :   -0.0000000000   -0.0000000000   -0.0000000000

Difference to rotation invariance:
           :   -0.0006212521    0.0003681971   -0.0006525041

Norm of the Cartesian gradient     ...    0.1222996480
RMS gradient                       ...    0.0104108374
MAX gradient                       ...    0.0423641314

-------
TIMINGS
-------

Total SCF gradient time     ....       23.706 sec

Densities                   ....       0.008 sec  (  0.0%)
One electron gradient       ....       0.325 sec  (  1.4%)
RI-J Coulomb gradient       ....       1.765 sec  (  7.4%)
COSX gradient               ....      19.197 sec  ( 81.0%)
XC gradient                 ....       2.411 sec  ( 10.2%)

Maximum memory used throughout the entire SCFGRAD-calculation: 163.1 MB
------------------------------------------------------------------------------
                         ORCA GEOMETRY RELAXATION STEP
------------------------------------------------------------------------------

Reading the OPT-File                    .... done
Getting information on internals        .... done
Copying old internal coords+grads       .... done
Making the new internal coordinates     .... (2022 redundants) done
Validating the new internal coordinates .... (2022 redundants) done
Calculating the B-matrix                .... done
Calculating the G,G- and P matrices     .... done
Transforming gradient to internals      .... done
Projecting the internal gradient        .... done
Number of atoms                         ....  46
Number of internal coordinates          .... 268
Current Energy                          .... -1259.390567292 Eh
Current gradient norm                   ....     0.122299648 Eh/bohr
Maximum allowed component of the step   ....  0.300
Current trust radius                    ....  0.300
Evaluating the initial hessian          ....  (Almloef) done
Projecting the Hessian                  .... done
Forming the augmented Hessian           .... done
Diagonalizing the augmented Hessian     .... done
Last element of RFO vector              ....  0.963802226
Lowest eigenvalues of augmented Hessian:
 -0.015112794  0.014735724  0.015135263  0.015932105  0.017710061
Length of the computed step             ....  0.276631659
The final length of the internal step   ....  0.276631659
Converting the step to Cartesian space:
 Initial RMS(Int)=    0.0168979681
Transforming coordinates:
 Iter   0:  RMS(Cart)=    0.0373075007 RMS(Int)=    0.8561196319
done
Storing new coordinates                 .... done

                                .--------------------.
          ----------------------|Geometry convergence|-------------------------
          Item                value                   Tolerance       Converged
          ---------------------------------------------------------------------
          RMS gradient        0.0050054855            0.0001000000      NO
          MAX gradient        0.0230498010            0.0003000000      NO
          RMS step            0.0168979681            0.0020000000      NO
          MAX step            0.0514943274            0.0040000000      NO
          -------------------------------------------------------------------------
          ........................................................
          Max(Bonds)      0.0198      Max(Angles)    2.05
          Max(Dihed)        2.95      Max(Improp)    0.00
          ---------------------------------------------------------------------

The optimization has not yet converged - more geometry cycles are needed


    ---------------------------------------------------------------------------
                         Redundant Internal Coordinates
                            (Angstroem and degrees)

        Definition                    Value    dE/dq     Step     New-Value
    ----------------------------------------------------------------------------
     1. B(C   1,O   0)                1.2161  0.013869 -0.0068    1.2092   
     2. B(N   2,C   1)                1.3677 -0.019577  0.0187    1.3864   
     3. B(C   3,N   2)                1.3682 -0.020674  0.0198    1.3879   
     4. B(O   4,C   3)                1.2158  0.014521 -0.0071    1.2087   
     5. B(C   5,C   3)                1.5050 -0.010475  0.0121    1.5170   
     6. B(C   6,C   5)                1.5124 -0.002414  0.0029    1.5153   
     7. B(C   7,C   6)                1.5382  0.000253 -0.0008    1.5374   
     8. B(C   8,C   7)                1.5136 -0.008890  0.0108    1.5244   
     9. B(O   9,C   8)                1.2223  0.022840 -0.0115    1.2108   
    10. B(N  10,C   8)                1.3830 -0.016539  0.0158    1.3988   
    11. B(C  11,N  10)                1.4317 -0.001529  0.0016    1.4334   
    12. B(C  12,C  11)                1.4027  0.006062 -0.0053    1.3974   
    13. B(C  13,C  12)                1.4043  0.014462 -0.0126    1.3917   
    14. B(C  14,C  13)                1.3986  0.002101 -0.0017    1.3969   
    15. B(C  15,C  14)                1.4718 -0.006038  0.0067    1.4785   
    16. B(C  16,C  15)                1.4051  0.005654 -0.0050    1.4001   
    17. B(C  17,C  16)                1.3977  0.007149 -0.0061    1.3916   
    18. B(C  18,C  17)                1.3923  0.002140 -0.0017    1.3906   
    19. B(C  19,C  18)                1.3923  0.002154 -0.0017    1.3906   
    20. B(C  20,C  19)                1.3977  0.007176 -0.0061    1.3916   
    21. B(C  20,C  15)                1.4051  0.005651 -0.0050    1.4001   
    22. B(C  21,C  14)                1.3986  0.001794 -0.0015    1.3971   
    23. B(C  22,C  21)                1.4041  0.014548 -0.0127    1.3915   
    24. B(C  22,C  11)                1.4031  0.006117 -0.0054    1.3977   
    25. B(C  23,N  10)                1.3821 -0.015785  0.0154    1.3975   
    26. B(O  24,C  23)                1.2229  0.023050 -0.0116    1.2113   
    27. B(C  25,C  23)                1.5084 -0.007316  0.0092    1.5176   
    28. B(C  25,C   7)                1.5317 -0.012381  0.0150    1.5467   
    29. B(C  26,C  25)                1.5425 -0.004310  0.0064    1.5490   
    30. B(C  27,C   5)                1.5208 -0.013307  0.0135    1.5343   
    31. B(C  27,C   1)                1.5046 -0.011342  0.0129    1.5175   
    32. B(C  27,C  26)                1.5099 -0.003445  0.0048    1.5148   
    33. B(H  28,N   2)                1.0078 -0.002219  0.0026    1.0104   
    34. B(H  29,C   5)                1.1005  0.002161 -0.0032    1.0973   
    35. B(H  30,C   6)                1.0975  0.002541 -0.0037    1.0938   
    36. B(H  31,C   6)                1.0960  0.003554 -0.0051    1.0909   
    37. B(H  32,C   7)                1.0992  0.002518 -0.0037    1.0956   
    38. B(H  33,C  12)                1.0862  0.005796 -0.0081    1.0781   
    39. B(H  34,C  13)                1.0890  0.004590 -0.0065    1.0825   
    40. B(H  35,C  16)                1.0882  0.003268 -0.0046    1.0836   
    41. B(H  36,C  17)                1.0869  0.002755 -0.0038    1.0830   
    42. B(H  37,C  18)                1.0868  0.002509 -0.0035    1.0833   
    43. B(H  38,C  19)                1.0869  0.002761 -0.0039    1.0830   
    44. B(H  39,C  20)                1.0882  0.003278 -0.0046    1.0836   
    45. B(H  40,C  21)                1.0889  0.004562 -0.0064    1.0825   
    46. B(H  41,C  22)                1.0864  0.005905 -0.0082    1.0781   
    47. B(H  42,C  25)                1.0962  0.003727 -0.0054    1.0908   
    48. B(H  43,C  26)                1.0981  0.002449 -0.0036    1.0945   
    49. B(H  44,C  26)                1.0968  0.003620 -0.0052    1.0916   
    50. B(H  45,C  27)                1.1009  0.001897 -0.0028    1.0981   
    51. A(O   0,C   1,N   2)          126.76  0.004307   -0.52    126.24   
    52. A(O   0,C   1,C  27)          126.95 -0.009311    1.15    128.10   
    53. A(N   2,C   1,C  27)          106.14  0.004876   -0.48    105.66   
    54. A(C   1,N   2,H  28)          123.64  0.001928   -0.55    123.08   
    55. A(C   1,N   2,C   3)          112.59 -0.003925    1.12    113.71   
    56. A(C   3,N   2,H  28)          123.74  0.001986   -0.56    123.18   
    57. A(N   2,C   3,C   5)          105.99  0.004797   -0.45    105.54   
    58. A(O   4,C   3,C   5)          127.25 -0.009335    1.12    128.36   
    59. A(N   2,C   3,O   4)          126.68  0.004437   -0.57    126.11   
    60. A(C   3,C   5,C  27)          100.84 -0.004393    1.22    102.05   
    61. A(C   3,C   5,H  29)          105.69  0.000901   -0.79    104.90   
    62. A(C   6,C   5,H  29)          109.23 -0.000674   -0.50    108.72   
    63. A(C  27,C   5,H  29)          110.88  0.005066   -1.76    109.12   
    64. A(C   3,C   5,C   6)          120.05  0.001970    0.62    120.66   
    65. A(C   6,C   5,C  27)          109.80 -0.002381    1.04    110.84   
    66. A(C   5,C   6,H  30)          109.66  0.000216   -0.03    109.63   
    67. A(C   5,C   6,C   7)          110.17  0.002581   -0.80    109.37   
    68. A(C   7,C   6,H  31)          111.31  0.004924   -0.69    110.62   
    69. A(C   5,C   6,H  31)          110.22 -0.004774    0.96    111.18   
    70. A(H  30,C   6,H  31)          106.22 -0.001777    0.48    106.70   
    71. A(C   7,C   6,H  30)          109.18 -0.001351    0.14    109.32   
    72. A(C   8,C   7,H  32)          105.57 -0.000445   -0.37    105.20   
    73. A(C   6,C   7,H  32)          108.30  0.000465   -0.37    107.92   
    74. A(C   6,C   7,C   8)          114.13  0.000739    0.35    114.47   
    75. A(C   8,C   7,C  25)          101.66  0.000124    0.24    101.90   
    76. A(C   6,C   7,C  25)          116.73 -0.004453    1.24    117.96   
    77. A(C  25,C   7,H  32)          109.82  0.004037   -1.25    108.57   
    78. A(O   9,C   8,N  10)          129.45  0.015852   -1.97    127.48   
    79. A(C   7,C   8,O   9)          122.55 -0.015043    1.83    124.38   
    80. A(C   7,C   8,N  10)          108.00 -0.000812    0.14    108.15   
    81. A(C   8,N  10,C  23)          110.55  0.001925    0.04    110.59   
    82. A(C   8,N  10,C  11)          124.62 -0.001398    0.05    124.67   
    83. A(C  11,N  10,C  23)          124.81 -0.000534   -0.07    124.73   
    84. A(C  12,C  11,C  22)          116.60 -0.009321    1.21    117.82   
    85. A(N  10,C  11,C  22)          121.60  0.004206   -0.55    121.06   
    86. A(N  10,C  11,C  12)          121.79  0.005115   -0.67    121.13   
    87. A(C  13,C  12,H  33)          116.22 -0.008055    1.21    117.43   
    88. A(C  11,C  12,H  33)          122.06  0.002234   -0.40    121.66   
    89. A(C  11,C  12,C  13)          121.71  0.005811   -0.79    120.92   
    90. A(C  12,C  13,C  14)          121.36 -0.001262    0.19    121.55   
    91. A(C  14,C  13,H  34)          120.10  0.000522   -0.08    120.02   
    92. A(C  12,C  13,H  34)          118.54  0.000742   -0.11    118.43   
    93. A(C  15,C  14,C  21)          121.37 -0.000155    0.01    121.38   
    94. A(C  13,C  14,C  21)          117.26  0.000205   -0.00    117.26   
    95. A(C  13,C  14,C  15)          121.37 -0.000050   -0.01    121.36   
    96. A(C  16,C  15,C  20)          117.90 -0.001825    0.22    118.12   
    97. A(C  14,C  15,C  20)          121.05  0.000998   -0.12    120.92   
    98. A(C  14,C  15,C  16)          121.05  0.000827   -0.10    120.96   
    99. A(C  15,C  16,C  17)          121.09  0.000610   -0.09    120.99   
   100. A(C  17,C  16,H  35)          118.77 -0.002230    0.35    119.11   
   101. A(C  15,C  16,H  35)          120.14  0.001621   -0.26    119.89   
   102. A(C  16,C  17,C  18)          120.05 -0.000372    0.06    120.11   
   103. A(C  18,C  17,H  36)          120.04 -0.000339    0.05    120.09   
   104. A(C  16,C  17,H  36)          119.91  0.000712   -0.11    119.80   
   105. A(C  17,C  18,C  19)          119.83  0.001364   -0.16    119.67   
   106. A(C  19,C  18,H  37)          120.09 -0.000684    0.08    120.17   
   107. A(C  17,C  18,H  37)          120.09 -0.000680    0.08    120.17   
   108. A(C  18,C  19,C  20)          120.05 -0.000356    0.06    120.11   
   109. A(C  20,C  19,H  38)          119.91  0.000701   -0.11    119.80   
   110. A(C  18,C  19,H  38)          120.04 -0.000346    0.05    120.09   
   111. A(C  15,C  20,C  19)          121.09  0.000579   -0.09    121.00   
   112. A(C  19,C  20,H  39)          118.77 -0.002217    0.35    119.11   
   113. A(C  15,C  20,H  39)          120.14  0.001639   -0.26    119.88   
   114. A(C  14,C  21,C  22)          121.33 -0.001286    0.19    121.53   
   115. A(C  22,C  21,H  40)          118.56  0.000738   -0.11    118.45   
   116. A(C  14,C  21,H  40)          120.10  0.000550   -0.08    120.02   
   117. A(C  11,C  22,C  21)          121.73  0.005854   -0.80    120.93   
   118. A(C  21,C  22,H  41)          116.28 -0.007680    1.15    117.43   
   119. A(C  11,C  22,H  41)          121.98  0.001815   -0.33    121.65   
   120. A(O  24,C  23,C  25)          121.48 -0.017086    2.05    123.52   
   121. A(N  10,C  23,C  25)          108.60  0.000852   -0.01    108.60   
   122. A(N  10,C  23,O  24)          129.90  0.016226   -2.05    127.85   
   123. A(C  26,C  25,H  42)          110.11  0.001451   -0.45    109.66   
   124. A(C  23,C  25,H  42)          109.91  0.001628   -0.66    109.25   
   125. A(C   7,C  25,H  42)          109.31 -0.003621    1.42    110.72   
   126. A(C  23,C  25,C  26)          109.72  0.001956   -0.47    109.25   
   127. A(C   7,C  25,C  26)          115.72  0.001864   -0.27    115.45   
   128. A(C   7,C  25,C  23)          101.72 -0.003518    0.46    102.18   
   129. A(C  25,C  26,C  27)          109.25  0.000834   -0.45    108.80   
   130. A(C  27,C  26,H  44)          110.55 -0.004369    0.97    111.52   
   131. A(C  25,C  26,H  44)          109.75  0.002489   -0.30    109.45   
   132. A(C  27,C  26,H  43)          110.39  0.001280   -0.43    109.96   
   133. A(C  25,C  26,H  43)          111.32 -0.000391   -0.13    111.19   
   134. A(H  43,C  26,H  44)          105.54  0.000068    0.39    105.93   
   135. A(C   5,C  27,C  26)          109.77 -0.001714    0.90    110.67   
   136. A(C   1,C  27,C  26)          120.18  0.002147    0.49    120.67   
   137. A(C  26,C  27,H  45)          108.94 -0.000903   -0.47    108.48   
   138. A(C   1,C  27,C   5)          101.09 -0.004235    1.18    102.27   
   139. A(C   5,C  27,H  45)          110.83  0.005479   -1.68    109.15   
   140. A(C   1,C  27,H  45)          105.68 -0.000220   -0.60    105.08   
   141. D(C   3,N   2,C   1,C  27)     10.65  0.001511   -1.15      9.50   
   142. D(H  28,N   2,C   1,C  27)   -167.22  0.001815   -1.40   -168.63   
   143. D(C   3,N   2,C   1,O   0)   -173.61 -0.000720    1.10   -172.51   
   144. D(H  28,N   2,C   1,O   0)      8.52 -0.000416    0.85      9.36   
   145. D(C   5,C   3,N   2,C   1)     13.18  0.002000   -1.22     11.95   
   146. D(O   4,C   3,N   2,H  28)      7.92 -0.000529    0.79      8.71   
   147. D(C   5,C   3,N   2,H  28)   -168.95  0.001694   -0.97   -169.93   
   148. D(O   4,C   3,N   2,C   1)   -169.95 -0.000224    0.54   -169.41   
   149. D(C  27,C   5,C   3,O   4)    152.55 -0.002534    1.25    153.79   
   150. D(C   6,C   5,C   3,O   4)     31.94  0.002866   -1.40     30.54   
   151. D(C  27,C   5,C   3,N   2)    -30.60 -0.004202    2.95    -27.65   
   152. D(H  29,C   5,C   3,N   2)     84.91 -0.000112    1.24     86.15   
   153. D(C   6,C   5,C   3,N   2)   -151.20  0.001197    0.30   -150.90   
   154. D(C   7,C   6,C   5,C  27)     56.85  0.003170   -1.55     55.30   
   155. D(C   7,C   6,C   5,H  29)    -64.93 -0.001159    0.29    -64.64   
   156. D(C   7,C   6,C   5,C   3)    172.89 -0.003333    1.36    174.26   
   157. D(H  30,C   6,C   5,H  29)    174.88 -0.001244    0.65    175.53   
   158. D(H  30,C   6,C   5,C   3)     52.71 -0.003418    1.72     54.42   
   159. D(H  30,C   6,C   5,C  27)    -63.34  0.003084   -1.19    -64.53   
   160. D(C  25,C   7,C   6,H  30)     79.42  0.001054   -0.02     79.40   
   161. D(C  25,C   7,C   6,C   5)    -41.06  0.000041    0.43    -40.63   
   162. D(C   8,C   7,C   6,H  31)    -45.38 -0.001754    1.81    -43.57   
   163. D(C   8,C   7,C   6,C   5)     77.20 -0.002659    2.00     79.20   
   164. D(C  25,C   7,C   6,H  31)   -163.64  0.000946    0.24   -163.40   
   165. D(C   8,C   7,C   6,H  30)   -162.32 -0.001645    1.55   -160.77   
   166. D(N  10,C   8,C   7,C  25)    -26.57 -0.002369    1.39    -25.18   
   167. D(O   9,C   8,C   7,H  32)    -92.14  0.001066    0.80    -91.35   
   168. D(O   9,C   8,C   7,C   6)     26.66  0.001760    0.29     26.95   
   169. D(O   9,C   8,C   7,C  25)    153.22 -0.003256    2.20    155.42   
   170. D(N  10,C   8,C   7,C   6)   -153.13  0.002647   -0.53   -153.65   
   171. D(C  11,N  10,C   8,C   7)   -169.59  0.000407   -0.47   -170.06   
   172. D(C  23,N  10,C   8,O   9)   -167.70  0.001763   -1.68   -169.39   
   173. D(C  23,N  10,C   8,C   7)     12.06  0.000703   -0.78     11.28   
   174. D(C  11,N  10,C   8,O   9)     10.65  0.001467   -1.38      9.27   
   175. D(C  22,C  11,N  10,C  23)   -169.68 -0.001007    1.66   -168.02   
   176. D(C  22,C  11,N  10,C   8)     12.20 -0.000705    1.31     13.50   
   177. D(C  12,C  11,N  10,C  23)     10.11 -0.001030    1.68     11.79   
   178. D(C  12,C  11,N  10,C   8)   -168.01 -0.000729    1.32   -166.68   
   179. D(H  33,C  12,C  11,C  22)   -179.28  0.000851   -1.18   -180.45   
   180. D(H  33,C  12,C  11,N  10)      0.92  0.000849   -1.19     -0.27   
   181. D(C  13,C  12,C  11,C  22)     -0.18 -0.000001    0.02     -0.17   
   182. D(C  13,C  12,C  11,N  10)   -179.99 -0.000003    0.00   -179.99   
   183. D(H  34,C  13,C  12,H  33)     -1.38 -0.000488    0.76     -0.62   
   184. D(C  14,C  13,C  12,H  33)    179.26 -0.000682    1.05    180.31   
   185. D(C  14,C  13,C  12,C  11)      0.12  0.000042   -0.06      0.05   
   186. D(H  34,C  13,C  12,C  11)    179.48  0.000236   -0.35    179.13   
   187. D(C  21,C  14,C  13,H  34)   -179.34 -0.000240    0.36   -178.97   
   188. D(C  21,C  14,C  13,C  12)      0.01 -0.000041    0.07      0.08   
   189. D(C  15,C  14,C  13,H  34)      0.64 -0.000264    0.40      1.04   
   190. D(C  15,C  14,C  13,C  12)    179.99 -0.000066    0.10    180.10   
   191. D(C  20,C  15,C  14,C  21)   -127.41  0.001309   -2.53   -129.95   
   192. D(C  20,C  15,C  14,C  13)     52.61  0.001334   -2.57     50.04   
   193. D(C  16,C  15,C  14,C  21)     52.58  0.001306   -2.53     50.06   
   194. D(C  16,C  15,C  14,C  13)   -127.39  0.001331   -2.56   -129.95   
   195. D(H  35,C  16,C  15,C  20)   -179.25 -0.000082    0.14   -179.12   
   196. D(H  35,C  16,C  15,C  14)      0.75 -0.000080    0.13      0.88   
   197. D(C  17,C  16,C  15,C  20)     -0.02  0.000022   -0.03     -0.05   
   198. D(C  17,C  16,C  15,C  14)    179.98  0.000024   -0.03    179.94   
   199. D(C  18,C  17,C  16,C  15)      0.05 -0.000041    0.06      0.11   
   200. D(C  18,C  17,C  16,H  35)    179.29  0.000090   -0.11    179.18   
   201. D(H  36,C  17,C  16,H  35)     -0.54  0.000011   -0.00     -0.55   
   202. D(H  36,C  17,C  16,C  15)   -179.78 -0.000120    0.16   -179.62   
   203. D(C  19,C  18,C  17,C  16)     -0.03  0.000020   -0.03     -0.05   
   204. D(H  37,C  18,C  17,H  36)     -0.19  0.000101   -0.14     -0.33   
   205. D(H  37,C  18,C  17,C  16)    179.97  0.000021   -0.03    179.95   
   206. D(C  19,C  18,C  17,H  36)    179.81  0.000100   -0.13    179.68   
   207. D(H  38,C  19,C  18,H  37)     -0.19  0.000102   -0.14     -0.33   
   208. D(H  38,C  19,C  18,C  17)    179.81  0.000103   -0.14    179.67   
   209. D(C  20,C  19,C  18,H  37)    179.97  0.000021   -0.03    179.95   
   210. D(C  20,C  19,C  18,C  17)     -0.03  0.000022   -0.03     -0.05   
   211. D(H  39,C  20,C  19,H  38)     -0.54  0.000006    0.00     -0.54   
   212. D(H  39,C  20,C  19,C  18)    179.29  0.000085   -0.10    179.19   
   213. D(C  15,C  20,C  19,H  38)   -179.78 -0.000121    0.16   -179.62   
   214. D(C  15,C  20,C  19,C  18)      0.05 -0.000042    0.06      0.11   
   215. D(H  39,C  20,C  15,C  16)   -179.26 -0.000079    0.13   -179.13   
   216. D(H  39,C  20,C  15,C  14)      0.74 -0.000081    0.13      0.87   
   217. D(C  19,C  20,C  15,C  16)     -0.03  0.000021   -0.03     -0.06   
   218. D(C  19,C  20,C  15,C  14)    179.97  0.000018   -0.02    179.95   
   219. D(H  40,C  21,C  14,C  15)      0.59 -0.000203    0.30      0.89   
   220. D(H  40,C  21,C  14,C  13)   -179.44 -0.000228    0.34   -179.10   
   221. D(C  22,C  21,C  14,C  15)    179.95  0.000058   -0.07    179.88   
   222. D(C  22,C  21,C  14,C  13)     -0.07  0.000034   -0.04     -0.11   
   223. D(H  41,C  22,C  21,H  40)     -1.52 -0.000546    0.84     -0.68   
   224. D(H  41,C  22,C  21,C  14)    179.10 -0.000803    1.21    180.32   
   225. D(C  11,C  22,C  21,H  40)    179.37  0.000243   -0.37    179.00   
   226. D(C  11,C  22,C  21,C  14)     -0.00 -0.000014    0.00     -0.00   
   227. D(H  41,C  22,C  11,C  12)   -178.93  0.000904   -1.28   -180.21   
   228. D(H  41,C  22,C  11,N  10)      0.88  0.000908   -1.27     -0.39   
   229. D(C  21,C  22,C  11,C  12)      0.13 -0.000012    0.01      0.14   
   230. D(C  21,C  22,C  11,N  10)    179.94 -0.000008    0.03    179.96   
   231. D(C  25,C  23,N  10,C  11)   -170.01  0.001061   -0.42   -170.44   
   232. D(C  25,C  23,N  10,C   8)      8.33  0.000747   -0.11      8.22   
   233. D(O  24,C  23,N  10,C  11)      8.49  0.000382   -1.02      7.48   
   234. D(O  24,C  23,N  10,C   8)   -173.16  0.000068   -0.70   -173.86   
   235. D(H  42,C  25,C  23,N  10)   -140.17  0.003487   -0.63   -140.80   
   236. D(C  26,C  25,C  23,O  24)    -80.05 -0.000558    1.26    -78.79   
   237. D(C   7,C  25,C  23,O  24)    156.91 -0.001693    1.55    158.46   
   238. D(C   7,C  25,C  23,N  10)    -24.44 -0.001741    0.95    -23.49   
   239. D(C  26,C  25,C   7,H  32)    159.23 -0.000678   -0.08    159.15   
   240. D(C  26,C  25,C   7,C   8)    -89.32  0.000347   -0.83    -90.15   
   241. D(C  26,C  25,C   7,C   6)     35.51 -0.001299    0.54     36.05   
   242. D(C  26,C  25,C  23,N  10)     98.60 -0.000606    0.66     99.26   
   243. D(C  23,C  25,C   7,H  32)    -81.92  0.000304   -0.48    -82.41   
   244. D(C  23,C  25,C   7,C   8)     29.52  0.001329   -1.24     28.29   
   245. D(C  23,C  25,C   7,C   6)    154.36 -0.000317    0.13    154.48   
   246. D(H  43,C  26,C  25,H  42)   -157.07 -0.001426    0.70   -156.36   
   247. D(H  43,C  26,C  25,C  23)    -35.97  0.002784   -0.71    -36.68   
   248. D(H  43,C  26,C  25,C   7)     78.37  0.000816   -0.62     77.75   
   249. D(C  27,C  26,C  25,H  42)     80.76 -0.003348    1.64     82.40   
   250. D(C  27,C  26,C  25,C  23)   -158.15  0.000862    0.23   -157.92   
   251. D(C  27,C  26,C  25,C   7)    -43.80 -0.001105    0.32    -43.49   
   252. D(C   5,C  27,C  26,C  25)     60.19  0.002319   -0.91     59.28   
   253. D(C   1,C  27,C  26,H  44)    -62.50 -0.002455    1.72    -60.77   
   254. D(C   1,C  27,C  26,H  43)     53.90 -0.004227    2.52     56.42   
   255. D(C  26,C  27,C   5,H  29)     51.57 -0.000587   -0.21     51.35   
   256. D(C  26,C  27,C   5,C   6)    -69.22 -0.001450    0.87    -68.35   
   257. D(C  26,C  27,C   5,C   3)    163.14  0.000102   -1.14    162.00   
   258. D(C   1,C  27,C   5,H  29)    -76.37  0.000348   -1.99    -78.36   
   259. D(C   1,C  27,C   5,C   6)    162.84 -0.000515   -0.91    161.93   
   260. D(C   1,C  27,C   5,C   3)     35.20  0.001037   -2.92     32.28   
   261. D(H  45,C  27,C   1,O   0)    -89.38  0.001766   -0.83    -90.21   
   262. D(C   1,C  27,C  26,C  25)    176.64 -0.003323    1.77    178.41   
   263. D(C  26,C  27,C   1,N   2)   -150.05  0.000419    0.52   -149.53   
   264. D(C  26,C  27,C   1,O   0)     34.22  0.001893   -1.64     32.57   
   265. D(C   5,C  27,C   1,N   2)    -29.21 -0.003923    2.91    -26.30   
   266. D(C   5,C  27,C  26,H  43)    -62.55  0.001416   -0.16    -62.71   
   267. D(C   5,C  27,C   1,O   0)    155.06 -0.002450    0.75    155.81   
   268. D(C   5,C  27,C  26,H  44)   -178.95  0.003187   -0.95   -179.90   
    ----------------------------------------------------------------------------

Geometry step timings:
Preparation and reading OPT file:      0.000 s ( 0.135 %)
Internal coordinates            :      0.000 s ( 0.252 %)
B/P matrices and projection     :      0.007 s (43.735 %)
Hessian update/contruction      :      0.003 s (16.784 %)
Making the step                 :      0.005 s (29.614 %)
Converting the step to Cartesian:      0.001 s ( 3.115 %)
Storing new data                :      0.000 s ( 0.264 %)
Checking convergence            :      0.000 s ( 0.334 %)
Final printing                  :      0.001 s ( 5.767 %)
Total time                      :      0.017 s

Time for energy+gradient        :    101.700 s
Time for complete geometry iter :    101.953 s

         *************************************************************
         *                GEOMETRY OPTIMIZATION CYCLE   2            *
         *************************************************************
---------------------------------
CARTESIAN COORDINATES (ANGSTROEM)
---------------------------------
  O     -5.648633   -2.953394    0.048293
  C     -5.555948   -1.751162   -0.042816
  N     -6.306531   -0.931867   -0.871992
  C     -5.876418    0.387618   -0.890393
  O     -6.463565    1.321335   -1.384751
  C     -4.525277    0.383587   -0.200796
  C     -4.036721    1.606787    0.548397
  C     -2.715919    1.274095    1.261261
  C     -1.488775    1.293065    0.357048
  O     -1.392105    1.957859   -0.650355
  N     -0.529270    0.436601    0.906880
  C      0.829374    0.340440    0.460355
  C      1.649077   -0.717083    0.863485
  C      2.967706   -0.806013    0.427551
  C      3.522077    0.152426   -0.424138
  C      4.922913    0.052773   -0.886462
  C      5.793923    1.144363   -0.785745
  C      7.112894    1.051099   -1.219577
  C      7.585426   -0.137459   -1.765360
  C      6.733803   -1.231406   -1.874053
  C      5.415924   -1.136241   -1.437426
  C      2.698354    1.208702   -0.821180
  C      1.378839    1.304172   -0.389915
  C     -1.087135   -0.333226    1.931066
  O     -0.519038   -1.095720    2.681444
  C     -2.587906   -0.108192    1.943012
  C     -3.285884   -1.279826    1.208599
  C     -4.651956   -0.819598    0.743104
  H     -7.109606   -1.259063   -1.390623
  H     -3.804792    0.144720   -0.993270
  H     -4.783014    1.905660    1.290162
  H     -3.906723    2.455309   -0.124827
  H     -2.532178    2.051335    2.011180
  H      1.291076   -1.490434    1.523838
  H      3.571002   -1.634425    0.776292
  H      5.446468    2.074000   -0.350746
  H      7.771662    1.905702   -1.126829
  H      8.611749   -0.210798   -2.104165
  H      7.093028   -2.158759   -2.302886
  H      4.762642   -1.994437   -1.541944
  H      3.077727    1.968600   -1.492371
  H      0.801112    2.143894   -0.741330
  H     -2.936243   -0.062952    2.975685
  H     -2.694162   -1.618841    0.352528
  H     -3.359687   -2.137237    1.880150
  H     -5.239286   -0.526925    1.623615

----------------------------
CARTESIAN COORDINATES (A.U.)
----------------------------
  NO LB      ZA    FRAG     MASS         X           Y           Z
   0 O     8.0000    0    15.999  -10.674370   -5.581106    0.091260
   1 C     6.0000    0    12.011  -10.499219   -3.309217   -0.080910
   2 N     7.0000    0    14.007  -11.917617   -1.760974   -1.647826
   3 C     6.0000    0    12.011  -11.104821    0.732492   -1.682599
   4 O     8.0000    0    15.999  -12.214367    2.496961   -2.616801
   5 C     6.0000    0    12.011   -8.551534    0.724874   -0.379450
   6 C     6.0000    0    12.011   -7.628298    3.036387    1.036320
   7 C     6.0000    0    12.011   -5.132343    2.407691    2.383438
   8 C     6.0000    0    12.011   -2.813378    2.443540    0.674724
   9 O     8.0000    0    15.999   -2.630697    3.699818   -1.228993
  10 N     7.0000    0    14.007   -1.000175    0.825056    1.713754
  11 C     6.0000    0    12.011    1.567289    0.643338    0.869945
  12 C     6.0000    0    12.011    3.116304   -1.355090    1.631750
  13 C     6.0000    0    12.011    5.608151   -1.523143    0.807955
  14 C     6.0000    0    12.011    6.655762    0.288044   -0.801504
  15 C     6.0000    0    12.011    9.302958    0.099727   -1.675170
  16 C     6.0000    0    12.011   10.948927    2.162532   -1.484844
  17 C     6.0000    0    12.011   13.441422    1.986290   -2.304666
  18 C     6.0000    0    12.011   14.334378   -0.259760   -3.336047
  19 C     6.0000    0    12.011   12.725043   -2.327019   -3.541447
  20 C     6.0000    0    12.011   10.234613   -2.147185   -2.716341
  21 C     6.0000    0    12.011    5.099150    2.284115   -1.551805
  22 C     6.0000    0    12.011    2.605628    2.464528   -0.736832
  23 C     6.0000    0    12.011   -2.054388   -0.629707    3.649186
  24 O     8.0000    0    15.999   -0.980840   -2.070611    5.067194
  25 C     6.0000    0    12.011   -4.890434   -0.204454    3.671761
  26 C     6.0000    0    12.011   -6.209420   -2.418521    2.283922
  27 C     6.0000    0    12.011   -8.790924   -1.548816    1.404263
  28 H     1.0000    0     1.008  -13.435208   -2.379285   -2.627897
  29 H     1.0000    0     1.008   -7.190016    0.273482   -1.877007
  30 H     1.0000    0     1.008   -9.038586    3.601175    2.438054
  31 H     1.0000    0     1.008   -7.382637    4.639861   -0.235889
  32 H     1.0000    0     1.008   -4.785124    3.876462    3.800580
  33 H     1.0000    0     1.008    2.439780   -2.816513    2.879637
  34 H     1.0000    0     1.008    6.748216   -3.088615    1.466980
  35 H     1.0000    0     1.008   10.292334    3.919293   -0.662814
  36 H     1.0000    0     1.008   14.686314    3.601254   -2.129398
  37 H     1.0000    0     1.008   16.273846   -0.398351   -3.976295
  38 H     1.0000    0     1.008   13.403880   -4.079464   -4.351824
  39 H     1.0000    0     1.008    9.000090   -3.768939   -2.913853
  40 H     1.0000    0     1.008    5.816061    3.720114   -2.820173
  41 H     1.0000    0     1.008    1.513883    4.051373   -1.400910
  42 H     1.0000    0     1.008   -5.548696   -0.118961    5.623230
  43 H     1.0000    0     1.008   -5.091228   -3.059167    0.666181
  44 H     1.0000    0     1.008   -6.348889   -4.038794    3.552969
  45 H     1.0000    0     1.008   -9.900815   -0.995744    3.068188

--------------------------------
INTERNAL COORDINATES (ANGSTROEM)
--------------------------------
 O      0   0   0     0.000000000000     0.00000000     0.00000000
 C      1   0   0     1.209236339926     0.00000000     0.00000000
 N      2   1   0     1.386417452023   126.23411597     0.00000000
 C      3   2   1     1.387940040885   113.70052284   187.45629041
 O      4   3   2     1.208700989519   126.10608430   190.56977867
 C      4   3   2     1.516951288703   105.51358339    11.95340620
 C      6   4   3     1.515320604914   120.64925546   209.08651966
 C      7   6   4     1.537328065421   109.36417833   174.27425895
 C      8   7   6     1.524415474185   114.44834490    79.20155390
 O      9   8   7     1.210849824468   124.37401563    26.96376309
 N      9   8   7     1.398748267208   108.14502171   206.33964997
 C     11   9   8     1.433367677575   124.66910624   189.93835873
 C     12  11   9     1.397419383556   121.12490358   193.31726079
 C     13  12  11     1.391663958220   120.91680055   180.01521377
 C     14  13  12     1.396892071120   121.54551450     0.05301009
 C     15  14  13     1.478518086429   121.36009274   180.09674845
 C     16  15  14     1.400131806125   120.95502038   230.04511818
 C     17  16  15     1.391615102913   120.99360982   179.94384569
 C     18  17  16     1.390624631540   120.11205682     0.10813062
 C     19  18  17     1.390609399722   119.66579493   359.94727110
 C     20  19  18     1.391583516386   120.10942280   359.94495272
 C     15  14  13     1.397097149960   117.25987905     0.08557257
 C     22  15  14     1.391482871757   121.52668138   359.89073307
 C     11   9   8     1.397428145608   110.58299419    11.27909795
 O     24  11   9     1.211279515053   127.84887184   186.14865161
 C     24  11   9     1.517595445092   108.59428744     8.22416010
 C     26  24  11     1.548954680826   109.25191414    99.25754064
 C     27  26  24     1.514810404131   108.79947845   202.07630103
 H      3   2   1     1.010428240720   123.08635655     9.33533759
 H      6   4   3     1.097346301719   104.89729632    86.14149172
 H      7   6   4     1.093843388584   109.62505296    54.43041846
 H      7   6   4     1.090925683030   111.17196268   296.70979785
 H      8   7   6     1.095555326162   107.93703646   195.93809343
 H     13  12  11     1.078102127223   121.65240674   359.73861589
 H     14  13  12     1.082521753217   118.42751271   179.12496734
 H     17  16  15     1.083593539589   119.88543297     0.87789541
 H     18  17  16     1.083015903113   119.79765153   180.37944349
 H     19  18  17     1.083284516882   120.16837905   179.94594625
 H     20  19  18     1.083016897161   120.09386172   179.67229616
 H     21  20  19     1.083605032701   119.11228811   179.19052195
 H     22  15  14     1.082527987908   120.01996168   180.90317794
 H     23  22  15     1.078143692293   117.42298424   180.32487392
 H     26  24  11     1.090779171588   109.23293756   219.20325070
 H     27  26  24     1.094497177860   111.19388846   323.32053326
 H     27  26  24     1.091595989925   109.44530702    80.00342062
 H     28  27  26     1.098140485320   108.47562836   299.55541696

---------------------------
INTERNAL COORDINATES (A.U.)
---------------------------
 O      0   0   0     0.000000000000     0.00000000     0.00000000
 C      1   0   0     2.285125513645     0.00000000     0.00000000
 N      2   1   0     2.619949291612   126.23411597     0.00000000
 C      3   2   1     2.622826567576   113.70052284   187.45629041
 O      4   3   2     2.284113847990   126.10608430   190.56977867
 C      4   3   2     2.866622494147   105.51358339    11.95340620
 C      6   4   3     2.863540948375   120.64925546   209.08651966
 C      7   6   4     2.905129021636   109.36417833   174.27425895
 C      8   7   6     2.880727760521   114.44834490    79.20155390
 O      9   8   7     2.288174557551   124.37401563    26.96376309
 N      9   8   7     2.643251155320   108.14502171   206.33964997
 C     11   9   8     2.708672359831   124.66910624   189.93835873
 C     12  11   9     2.640739929153   121.12490358   193.31726079
 C     13  12  11     2.629863751484   120.91680055   180.01521377
 C     14  13  12     2.639743453063   121.54551450     0.05301009
 C     15  14  13     2.793994267401   121.36009274   180.09674845
 C     16  15  14     2.645865664969   120.95502038   230.04511818
 C     17  16  15     2.629771428335   120.99360982   179.94384569
 C     18  17  16     2.627899708696   120.11205682     0.10813062
 C     19  18  17     2.627870924730   119.66579493   359.94727110
 C     20  19  18     2.629711738448   120.10942280   359.94495272
 C     15  14  13     2.640130995906   117.25987905     0.08557257
 C     22  15  14     2.629521547663   121.52668138   359.89073307
 C     11   9   8     2.640756487033   110.58299419    11.27909795
 O     24  11   9     2.288986555080   127.84887184   186.14865161
 C     24  11   9     2.867839773310   108.59428744     8.22416010
 C     26  24  11     2.927100140616   109.25191414    99.25754064
 C     27  26  24     2.862576808623   108.79947845   202.07630103
 H      3   2   1     1.909432652941   123.08635655     9.33533759
 H      6   4   3     2.073683984321   104.89729632    86.14149172
 H      7   6   4     2.067064437824   109.62505296    54.43041846
 H      7   6   4     2.061550773388   111.17196268   296.70979785
 H      8   7   6     2.070299531005   107.93703646   195.93809343
 H     13  12  11     2.037317764850   121.65240674   359.73861589
 H     14  13  12     2.045669647593   118.42751271   179.12496734
 H     17  16  15     2.047695030309   119.88543297     0.87789541
 H     18  17  16     2.046603455565   119.79765153   180.37944349
 H     19  18  17     2.047111062024   120.16837905   179.94594625
 H     20  19  18     2.046605334043   120.09386172   179.67229616
 H     21  20  19     2.047716749143   119.11228811   179.19052195
 H     22  15  14     2.045681429452   120.01996168   180.90317794
 H     23  22  15     2.037396311448   117.42298424   180.32487392
 H     26  24  11     2.061273906886   109.23293756   219.20325070
 H     27  26  24     2.068299920506   111.19388846   323.32053326
 H     27  26  24     2.062817469845   109.44530702    80.00342062
 H     28  27  26     2.075184773827   108.47562836   299.55541696



           ************************************************************
           *        Program running with 16 parallel MPI-processes    *
           *              working on a common directory               *
           ************************************************************
------------------------------------------------------------------------------
                   ___                                                        
                  /   \      - P O W E R E D   B Y -                         
                 /     \                                                     
                 |  |  |   _    _      __       _____    __    __             
                 |  |  |  | |  | |    /  \     |  _  \  |  |  /  |          
                  \  \/   | |  | |   /    \    | | | |  |  | /  /          
                 / \  \   | |__| |  /  /\  \   | |_| |  |  |/  /          
                |  |  |   |  __  | /  /__\  \  |    /   |      \           
                |  |  |   | |  | | |   __   |  |    \   |  |\   \          
                \     /   | |  | | |  |  |  |  | |\  \  |  | \   \       
                 \___/    |_|  |_| |__|  |__|  |_| \__\ |__|  \__/        
                                                                              
                      - O R C A' S   B I G   F R I E N D -                    
                                      &                                       
                       - I N T E G R A L  F E E D E R -                       
                                                                              
 v1 FN, 2020, v2 2021, v3 2022-2024                                           
------------------------------------------------------------------------------


----------------------
SHARK INTEGRAL PACKAGE
----------------------

Number of atoms                             ...     46
Number of basis functions                   ...    976
Number of shells                            ...    380
Maximum angular momentum                    ...      3
Integral batch strategy                     ... SHARK/LIBINT Hybrid
RI-J (if used) integral strategy            ... SPLIT-RIJ (Revised 2003 algorithm where possible)
Printlevel                                  ...      1
Contraction scheme used                     ... SEGMENTED contraction
Prescreening option                         ... SCHWARTZ
   Thresh                                   ... 2.500e-11
   Tcut                                     ... 2.500e-12
   Tpresel                                  ... 2.500e-12 
Coulomb Range Separation                    ... NOT USED
Exchange Range Separation                   ... NOT USED
Multipole approximations                    ... NOT USED
Finite Nucleus Model                        ... NOT USED
CABS basis                                  ... NOT available
Auxiliary Coulomb fitting basis             ... AVAILABLE
   # of basis functions in Aux-J            ...   1570
   # of shells in Aux-J                     ...    510
   Maximum angular momentum in Aux-J        ...      4
Auxiliary J/K fitting basis                 ... NOT available
Auxiliary Correlation fitting basis         ... NOT available
Auxiliary 'external' fitting basis          ... NOT available

Checking pre-screening integrals            ... done (  0.0 sec) Dimension = 380
   => SHARK Basis and OBASIS are compatible. Storing Pre-screening
Shell pair information
Shell pair cut-off parameter TPreSel        ...   2.5e-12
Total number of shell pairs                 ...     72390
Shell pairs after pre-screening             ...     42373
Total number of primitive shell pairs       ...    224116
Primitive shell pairs kept                  ...     86592
          la=0 lb=0:  10614 shell pairs
          la=1 lb=0:  12269 shell pairs
          la=1 lb=1:   3552 shell pairs
          la=2 lb=0:   6019 shell pairs
          la=2 lb=1:   3515 shell pairs
          la=2 lb=2:    877 shell pairs
          la=3 lb=0:   2847 shell pairs
          la=3 lb=1:   1687 shell pairs
          la=3 lb=2:    795 shell pairs
          la=3 lb=3:    198 shell pairs

Checking whether 4 symmetric matrices of dimension 976 fit in memory
:Max Core in MB      =   4096.00
 MB in use           =     62.17
 MB left             =   4033.83
 MB needed           =     14.55
 Data fit in memory  = YES
Calculating RI/J V-Matrix + Cholesky decomp.... done (  0.1 sec)
Calculating Nuclear repulsion               ... done (  0.0 sec) ENN=   2406.767765994600 Eh

Diagonalization of the overlap matrix:
Smallest eigenvalue                        ... 6.405e-06
Time for diagonalization                   ...    0.154 sec
Threshold for overlap eigenvalues          ... 1.000e-07
Number of eigenvalues below threshold      ... 0
Time for construction of square roots      ...    0.067 sec
Total time needed                          ...    0.227 sec

-------------------
DFT GRID GENERATION
-------------------

General Integration Accuracy     IntAcc      ... 4.388
Radial Grid Type                 RadialGrid  ... OptM3 with GC (2021)
Angular Grid (max. ang.)         AngularGrid ... 4 (Lebedev-302)
Angular grid pruning method      GridPruning ... 4 (adaptive)
Weight generation scheme         WeightScheme... mBecke (2022)
Basis function cutoff            BFCut       ... 1.0000e-11
Integration weight cutoff        WCut        ... 1.0000e-14
Partially contracted basis set               ... off
Rotationally invariant grid construction     ... off
Angular grids for H and He will be reduced by one unit

Total number of grid points                  ...   224178
Total number of batches                      ...     3528
Average number of points per batch           ...       63
Average number of grid points per atom       ...     4873

--------------------
COSX GRID GENERATION
--------------------

GRIDX 1
-------
General Integration Accuracy     IntAcc      ... 3.816
Radial Grid Type                 RadialGrid  ... OptM3 with GC (2021)
Angular Grid (max. ang.)         AngularGrid ... 1 (Lebedev-50)
Angular grid pruning method      GridPruning ... 4 (adaptive)
Weight generation scheme         WeightScheme... mBecke (2022)
Basis function cutoff            BFCut       ... 1.0000e-11
Integration weight cutoff        WCut        ... 1.0000e-14
Partially contracted basis set               ... on
Rotationally invariant grid construction     ... off
Angular grids for H and He will be reduced by one unit

Total number of grid points                  ...    28404
Total number of batches                      ...      246
Average number of points per batch           ...      115
Average number of grid points per atom       ...      617
UseSFitting                                  ... on

GRIDX 2
-------
General Integration Accuracy     IntAcc      ... 4.020
Radial Grid Type                 RadialGrid  ... OptM3 with GC (2021)
Angular Grid (max. ang.)         AngularGrid ... 2 (Lebedev-110)
Angular grid pruning method      GridPruning ... 4 (adaptive)
Weight generation scheme         WeightScheme... mBecke (2022)
Basis function cutoff            BFCut       ... 1.0000e-11
Integration weight cutoff        WCut        ... 1.0000e-14
Partially contracted basis set               ... on
Rotationally invariant grid construction     ... off
Angular grids for H and He will be reduced by one unit

Total number of grid points                  ...    62310
Total number of batches                      ...      511
Average number of points per batch           ...      121
Average number of grid points per atom       ...     1355
UseSFitting                                  ... on

GRIDX 3
-------
General Integration Accuracy     IntAcc      ... 4.338
Radial Grid Type                 RadialGrid  ... OptM3 with GC (2021)
Angular Grid (max. ang.)         AngularGrid ... 3 (Lebedev-194)
Angular grid pruning method      GridPruning ... 4 (adaptive)
Weight generation scheme         WeightScheme... mBecke (2022)
Basis function cutoff            BFCut       ... 1.0000e-11
Integration weight cutoff        WCut        ... 1.0000e-14
Partially contracted basis set               ... on
Rotationally invariant grid construction     ... off
Angular grids for H and He will be reduced by one unit

Total number of grid points                  ...   136278
Total number of batches                      ...     1086
Average number of points per batch           ...      125
Average number of grid points per atom       ...     2963
UseSFitting                                  ... on
Grids setup in   1.9 sec
Initializing property integral containers    ... done (  0.0 sec)

SHARK setup successfully completed in   2.6 seconds

Maximum memory used throughout the entire STARTUP-calculation: 103.7 MB


           ************************************************************
           *        Program running with 16 parallel MPI-processes    *
           *              working on a common directory               *
           ************************************************************
Occupation numbers will be reassigned to an Aufbau configuration
             **** ENERGY FILE WAS UPDATED (conjugate_row2_A2_H4.en.tmp) ****
Finished Guess after   0.7 sec
Maximum memory used throughout the entire GUESS-calculation: 99.0 MB


           ************************************************************
           *        Program running with 16 parallel MPI-processes    *
           *              working on a common directory               *
           ************************************************************
----------------------------------------D-I-I-S--------------------------------------------
Iteration    Energy (Eh)           Delta-E    RMSDP     MaxDP     DIISErr   Damp  Time(sec)
-------------------------------------------------------------------------------------------
               ***  Starting incremental Fock matrix formation  ***
    1    -1259.3938349428090078     0.00e+00  5.11e-04  1.97e-02  1.76e-02  0.700   6.7
    2    -1259.3957592490942261    -1.92e-03  4.52e-04  1.72e-02  1.37e-02  0.700   3.4
                               ***Turning on AO-DIIS***
    3    -1259.3972029346145973    -1.44e-03  3.34e-04  1.20e-02  1.02e-02  0.700   3.1
    4    -1259.3982357774434604    -1.03e-03  8.67e-04  3.73e-02  7.40e-03  0.000   3.0
                              *** Initializing SOSCF ***
---------------------------------------S-O-S-C-F--------------------------------------
Iteration    Energy (Eh)           Delta-E    RMSDP     MaxDP     MaxGrad    Time(sec)
--------------------------------------------------------------------------------------
    5    -1259.4008713024800272    -2.64e-03  5.23e-05  2.07e-03  5.39e-04     3.5
               *** Restarting incremental Fock matrix formation ***
    6    -1259.4008802255993942    -8.92e-06  6.75e-05  3.63e-03  1.10e-04     6.6
    7    -1259.4008794845203738     7.41e-07  2.52e-05  9.49e-04  2.30e-04     4.2
    8    -1259.4008831918235956    -3.71e-06  1.57e-05  6.18e-04  5.80e-05     3.7
    9    -1259.4008827158213535     4.76e-07  8.12e-06  3.07e-04  8.23e-05     3.5
   10    -1259.4008833733187203    -6.57e-07  5.24e-06  2.04e-04  5.56e-06     3.1
   11    -1259.4008833637599309     9.56e-09  2.81e-06  1.05e-04  6.66e-06     2.8
                 **** Energy Check signals convergence ****

               *****************************************************
               *                     SUCCESS                       *
               *           SCF CONVERGED AFTER  11 CYCLES          *
               *****************************************************

Recomputing exchange energy using gridx3       ... done (   11.004 sec)
Old exchange energy                            :    -33.372197458 Eh
New exchange energy                            :    -33.372186378 Eh
Exchange energy change after final integration :      0.000011081 Eh
Total energy after final integration           :  -1259.400872303 Eh
             **** ENERGY FILE WAS UPDATED (conjugate_row2_A2_H4.en.tmp) ****

----------------
TOTAL SCF ENERGY
----------------

Total Energy       :      -1259.40087230250811 Eh          -34270.03999 eV

Components:
Nuclear Repulsion  :       2406.76776599460027 Eh           65491.48044 eV
Electronic Energy  :      -3666.16864937783748 Eh          -99761.52073 eV
One Electron Energy:      -6495.03535115072373 Eh         -176738.89714 eV
Two Electron Energy:       2828.86670177288624 Eh           76977.37641 eV

Virial components:
Potential Energy   :      -2513.38105266916318 Eh          -68392.57545 eV
Kinetic Energy     :       1253.98018036665530 Eh           34122.53546 eV
Virial Ratio       :          2.00432278916423

DFT components:
N(Alpha)           :       98.000076825368 electrons
N(Beta)            :       98.000076825368 electrons
N(Total)           :      196.000153650735 electrons
E(X)               :     -132.675979200011 Eh       
E(C)               :       -7.943520616831 Eh       
E(XC)              :     -140.619499816842 Eh       

---------------
SCF CONVERGENCE
---------------

  Last Energy change         ...   -9.5588e-09  Tolerance :   1.0000e-08
  Last MAX-Density change    ...    1.0452e-04  Tolerance :   1.0000e-07
  Last RMS-Density change    ...    2.8104e-06  Tolerance :   5.0000e-09
  Last DIIS Error            ...    5.3879e-04  Tolerance :   5.0000e-07
  Last Orbital Gradient      ...    6.6570e-06  Tolerance :   1.0000e-05
  Last Orbital Rotation      ...    1.1340e-05  Tolerance :   1.0000e-05


Total SCF time: 0 days 0 hours 0 min 57 sec 
Finished LeanSCF after  57.8 sec

Maximum memory used throughout the entire LEANSCF-calculation: 138.2 MB

-------------------------   --------------------
FINAL SINGLE POINT ENERGY     -1259.400872302508
-------------------------   --------------------



           ************************************************************
           *        Program running with 16 parallel MPI-processes    *
           *              working on a common directory               *
           ************************************************************
------------------------------------------------------------------------------
                         ORCA SCF GRADIENT CALCULATION
------------------------------------------------------------------------------

Nuc. rep. gradient        (SHARK) ... done (  0.0 sec)
HCore & Overlap gradient  (SHARK) ... done (  0.3 sec)
Split-RIJ-J gradient      (SHARK) ... done (  1.8 sec)
COSX-gradient                     ... done ( 18.7 sec)
XC gradient                       ... done (  2.4 sec)

------------------
CARTESIAN GRADIENT
------------------

   1   O   :    0.002206128   -0.007692452    0.002194771
   2   C   :   -0.003390665    0.016861422   -0.006591224
   3   N   :    0.003925127    0.001911378    0.001915470
   4   C   :    0.002163046   -0.017737956    0.005264501
   5   O   :   -0.001892393    0.008126701   -0.001290598
   6   C   :    0.003370582   -0.001292957   -0.007446070
   7   C   :    0.001872381   -0.002798349    0.002056463
   8   C   :    0.002535039    0.003756360    0.003380161
   9   C   :    0.011694663   -0.012324174    0.010282066
  10   O   :   -0.004277040    0.005987734   -0.006974138
  11   N   :   -0.010999830    0.000870702    0.004039617
  12   C   :   -0.006109149    0.000215495    0.002019606
  13   C   :   -0.003816807    0.007109043   -0.000335692
  14   C   :    0.004657373   -0.002899853    0.001829586
  15   C   :    0.001292946   -0.000019976   -0.000472178
  16   C   :   -0.003622846    0.000233163    0.001193255
  17   C   :   -0.001540781   -0.001078372    0.001439515
  18   C   :    0.002039079    0.001087347   -0.000090782
  19   C   :   -0.000924590    0.000061245    0.000305714
  20   C   :    0.001540795   -0.001334574   -0.001086524
  21   C   :   -0.001914905    0.001324244   -0.000298304
  22   C   :    0.003143279    0.002213827   -0.004253364
  23   C   :   -0.003511351   -0.006315833    0.002592902
  24   C   :    0.005740640    0.012047003   -0.017396223
  25   O   :   -0.000796119   -0.006717655    0.008271034
  26   C   :    0.000152760   -0.008837643   -0.001834080
  27   C   :    0.002081075    0.006411740   -0.001535984
  28   C   :   -0.006928863   -0.000463493    0.005701323
  29   H   :   -0.000064672   -0.000022352    0.000053414
  30   H   :   -0.000458294    0.001809663   -0.000272488
  31   H   :   -0.000501240    0.000494001   -0.000188991
  32   H   :   -0.002259138    0.000345044   -0.000753422
  33   H   :   -0.000792899    0.001076211   -0.000775246
  34   H   :    0.002353309   -0.002619097   -0.000012245
  35   H   :   -0.000315396   -0.000134198    0.000170508
  36   H   :    0.000996553    0.000692886   -0.000183953
  37   H   :    0.000146784   -0.000044839   -0.000158014
  38   H   :    0.000197853   -0.000021019   -0.000068009
  39   H   :    0.000212329    0.000010098    0.000038752
  40   H   :    0.000806114   -0.000822995   -0.000408703
  41   H   :   -0.000376835    0.000166651   -0.000006456
  42   H   :    0.002159279    0.002195590   -0.001315713
  43   H   :   -0.001122675    0.002789778    0.000035930
  44   H   :    0.000192807   -0.001712473    0.000546936
  45   H   :   -0.000879366   -0.001113305   -0.000292498
  46   H   :    0.001015911   -0.001793762    0.000709375

Difference to translation invariance:
           :   -0.0000000000   -0.0000000000   -0.0000000000

Difference to rotation invariance:
           :   -0.0003661077    0.0002387922   -0.0006138511

Norm of the Cartesian gradient     ...    0.0522970730
RMS gradient                       ...    0.0044518225
MAX gradient                       ...    0.0177379564

-------
TIMINGS
-------

Total SCF gradient time     ....       23.246 sec

Densities                   ....       0.008 sec  (  0.0%)
One electron gradient       ....       0.320 sec  (  1.4%)
RI-J Coulomb gradient       ....       1.794 sec  (  7.7%)
COSX gradient               ....      18.749 sec  ( 80.7%)
XC gradient                 ....       2.375 sec  ( 10.2%)

Maximum memory used throughout the entire SCFGRAD-calculation: 163.2 MB
------------------------------------------------------------------------------
                         ORCA GEOMETRY RELAXATION STEP
------------------------------------------------------------------------------

Reading the OPT-File                    .... done
Getting information on internals        .... done
Copying old internal coords+grads       .... done
Making the new internal coordinates     .... (2022 redundants) done
Validating the new internal coordinates .... (2022 redundants) done
Calculating the B-matrix                .... done
Calculating the G,G- and P matrices     .... done
Transforming gradient to internals      .... done
Projecting the internal gradient        .... done
Number of atoms                         ....  46
Number of internal coordinates          .... 268
Current Energy                          .... -1259.400872303 Eh
Current gradient norm                   ....     0.052297073 Eh/bohr
Maximum allowed component of the step   ....  0.300
Current trust radius                    ....  0.300
Updating the Hessian (BFGS)             .... done
Forming the augmented Hessian           .... done
Diagonalizing the augmented Hessian     .... done
Last element of RFO vector              ....  0.955824102
Lowest eigenvalues of augmented Hessian:
 -0.004876536  0.014759007  0.015129012  0.015888828  0.017708116
Length of the computed step             ....  0.307524422
Warning: the length of the step is outside the trust region - taking restricted step instead
The input lambda is                     ....     0.013290
   iter:   5  x=    0.005692  g=  208.475418 f(x)=     0.610489
   iter:  10  x=   -0.005495  g=    7.110011 f(x)=     0.000270
The output lambda is                    ....    -0.005496 (13 iterations)
The final length of the internal step   ....  0.300000000
Converting the step to Cartesian space:
 Initial RMS(Int)=    0.0183254167
Transforming coordinates:
 Iter   0:  RMS(Cart)=    0.0731398884 RMS(Int)=    0.5426638943
 Iter   5:  RMS(Cart)=    0.0000000695 RMS(Int)=    0.0000000336
done
Storing new coordinates                 .... done
The predicted energy change is          ....    -0.002657015
Previously predicted energy change      ....    -0.008134651
Actually observed energy change         ....    -0.010305010
Ratio of predicted to observed change   ....     1.266804231
New trust radius                        ....     0.300000000

                                .--------------------.
          ----------------------|Geometry convergence|-------------------------
          Item                value                   Tolerance       Converged
          ---------------------------------------------------------------------
          Energy change      -0.0103050103            0.0000050000      NO
          RMS gradient        0.0019269694            0.0001000000      NO
          MAX gradient        0.0089801357            0.0003000000      NO
          RMS step            0.0183254167            0.0020000000      NO
          MAX step            0.0921254942            0.0040000000      NO
          -------------------------------------------------------------------------
          ........................................................
          Max(Bonds)      0.0137      Max(Angles)    1.47
          Max(Dihed)        5.28      Max(Improp)    0.00
          ---------------------------------------------------------------------

The optimization has not yet converged - more geometry cycles are needed


    ---------------------------------------------------------------------------
                         Redundant Internal Coordinates
                            (Angstroem and degrees)

        Definition                    Value    dE/dq     Step     New-Value
    ----------------------------------------------------------------------------
     1. B(C   1,O   0)                1.2092  0.007645 -0.0065    1.2027   
     2. B(N   2,C   1)                1.3864 -0.005510  0.0102    1.3966   
     3. B(C   3,N   2)                1.3879 -0.006068  0.0112    1.3992   
     4. B(O   4,C   3)                1.2087  0.007725 -0.0066    1.2021   
     5. B(C   5,C   3)                1.5170 -0.002661  0.0059    1.5228   
     6. B(C   6,C   5)                1.5153 -0.000309  0.0012    1.5165   
     7. B(C   7,C   6)                1.5373  0.000258 -0.0009    1.5364   
     8. B(C   8,C   7)                1.5244 -0.001323  0.0031    1.5275   
     9. B(O   9,C   8)                1.2108  0.008747 -0.0080    1.2028   
    10. B(N  10,C   8)                1.3987 -0.007510  0.0128    1.4115   
    11. B(C  11,N  10)                1.4334 -0.002738  0.0048    1.4381   
    12. B(C  12,C  11)                1.3974  0.000087 -0.0006    1.3969   
    13. B(C  13,C  12)                1.3917  0.003308 -0.0057    1.3860   
    14. B(C  14,C  13)                1.3969  0.000582 -0.0010    1.3959   
    15. B(C  15,C  14)                1.4785 -0.002178  0.0044    1.4829   
    16. B(C  16,C  15)                1.4001  0.001170 -0.0021    1.3980   
    17. B(C  17,C  16)                1.3916  0.001696 -0.0028    1.3888   
    18. B(C  18,C  17)                1.3906  0.000057 -0.0002    1.3904   
    19. B(C  19,C  18)                1.3906  0.000051 -0.0002    1.3904   
    20. B(C  20,C  19)                1.3916  0.001696 -0.0028    1.3888   
    21. B(C  20,C  15)                1.4001  0.001168 -0.0021    1.3980   
    22. B(C  21,C  14)                1.3971  0.000493 -0.0008    1.3963   
    23. B(C  22,C  21)                1.3915  0.003355 -0.0058    1.3857   
    24. B(C  22,C  11)                1.3977  0.000232 -0.0008    1.3970   
    25. B(C  23,N  10)                1.3974 -0.008032  0.0137    1.4111   
    26. B(O  24,C  23)                1.2113  0.008980 -0.0082    1.2031   
    27. B(C  25,C  23)                1.5176 -0.001405  0.0036    1.5212   
    28. B(C  25,C   7)                1.5466 -0.001371  0.0026    1.5492   
    29. B(C  26,C  25)                1.5490 -0.002187  0.0052    1.5542   
    30. B(C  27,C   5)                1.5345 -0.001713  0.0021    1.5366   
    31. B(C  27,C   1)                1.5175 -0.003063  0.0064    1.5238   
    32. B(C  27,C  26)                1.5148 -0.000317  0.0015    1.5163   
    33. B(H  28,N   2)                1.0104  0.000032  0.0002    1.0106   
    34. B(H  29,C   5)                1.0973 -0.000498  0.0009    1.0982   
    35. B(H  30,C   6)                1.0938  0.000349 -0.0011    1.0927   
    36. B(H  31,C   6)                1.0909  0.000462 -0.0015    1.0894   
    37. B(H  32,C   7)                1.0956  0.000099 -0.0005    1.0950   
    38. B(H  33,C  12)                1.0781  0.001090 -0.0031    1.0750   
    39. B(H  34,C  13)                1.0825 -0.000018 -0.0005    1.0820   
    40. B(H  35,C  16)                1.0836  0.000203 -0.0008    1.0828   
    41. B(H  36,C  17)                1.0830  0.000042 -0.0004    1.0826   
    42. B(H  37,C  18)                1.0833  0.000210 -0.0008    1.0825   
    43. B(H  38,C  19)                1.0830  0.000044 -0.0004    1.0826   
    44. B(H  39,C  20)                1.0836  0.000203 -0.0008    1.0828   
    45. B(H  40,C  21)                1.0825 -0.000011 -0.0005    1.0820   
    46. B(H  41,C  22)                1.0781  0.000982 -0.0029    1.0753   
    47. B(H  42,C  25)                1.0908  0.000508 -0.0016    1.0892   
    48. B(H  43,C  26)                1.0945  0.000209 -0.0008    1.0937   
    49. B(H  44,C  26)                1.0916  0.000754 -0.0022    1.0894   
    50. B(H  45,C  27)                1.0981 -0.000454  0.0008    1.0990   
    51. A(O   0,C   1,N   2)          126.23  0.002447   -0.53    125.70   
    52. A(O   0,C   1,C  27)          128.10 -0.004721    1.00    129.09   
    53. A(N   2,C   1,C  27)          105.63  0.002283   -0.55    105.09   
    54. A(C   1,N   2,H  28)          123.09  0.000850   -0.37    122.72   
    55. A(C   1,N   2,C   3)          113.70 -0.001821    0.77    114.47   
    56. A(C   3,N   2,H  28)          123.18  0.000964   -0.39    122.79   
    57. A(N   2,C   3,C   5)          105.51  0.002336   -0.50    105.02   
    58. A(O   4,C   3,C   5)          128.36 -0.004836    1.00    129.36   
    59. A(N   2,C   3,O   4)          126.11  0.002498   -0.57    125.53   
    60. A(C   3,C   5,C  27)          102.02 -0.001894    0.79    102.81   
    61. A(C   3,C   5,H  29)          104.90  0.000307   -0.40    104.50   
    62. A(C   6,C   5,H  29)          108.73 -0.000483   -0.15    108.58   
    63. A(C  27,C   5,H  29)          109.13  0.002011   -1.33    107.80   
    64. A(C   3,C   5,C   6)          120.65  0.000896    0.25    120.90   
    65. A(C   6,C   5,C  27)          110.82 -0.000592    0.66    111.48   
    66. A(C   5,C   6,H  30)          109.63  0.000126    0.05    109.67   
    67. A(C   5,C   6,C   7)          109.36  0.000535   -0.31    109.05   
    68. A(C   7,C   6,H  31)          110.62  0.003110   -0.86    109.76   
    69. A(C   5,C   6,H  31)          111.17 -0.002113    0.62    111.80   
    70. A(H  30,C   6,H  31)          106.69 -0.001305    0.54    107.24   
    71. A(C   7,C   6,H  30)          109.32 -0.000392   -0.02    109.30   
    72. A(C   8,C   7,H  32)          105.20  0.000136   -0.45    104.75   
    73. A(C   6,C   7,H  32)          107.94 -0.000668    0.00    107.94   
    74. A(C   6,C   7,C   8)          114.45  0.001328   -0.03    114.42   
    75. A(C   8,C   7,C  25)          101.89 -0.001150    0.53    102.41   
    76. A(C   6,C   7,C  25)          117.97 -0.001407    0.83    118.80   
    77. A(C  25,C   7,H  32)          108.57  0.002012   -1.05    107.52   
    78. A(O   9,C   8,N  10)          127.48  0.005886   -1.33    126.15   
    79. A(C   7,C   8,O   9)          124.37 -0.005700    1.26    125.63   
    80. A(C   7,C   8,N  10)          108.15 -0.000183    0.07    108.21   
    81. A(C   8,N  10,C  23)          110.58  0.002064   -0.21    110.37   
    82. A(C   8,N  10,C  11)          124.67 -0.000658    0.04    124.71   
    83. A(C  11,N  10,C  23)          124.73 -0.001410    0.19    124.92   
    84. A(C  12,C  11,C  22)          117.82 -0.003208    0.79    118.61   
    85. A(N  10,C  11,C  22)          121.06  0.001764   -0.42    120.63   
    86. A(N  10,C  11,C  12)          121.12  0.001444   -0.37    120.76   
    87. A(C  13,C  12,H  33)          117.43 -0.004637    1.21    118.64   
    88. A(C  11,C  12,H  33)          121.65  0.002032   -0.58    121.07   
    89. A(C  11,C  12,C  13)          120.92  0.002607   -0.62    120.30   
    90. A(C  12,C  13,C  14)          121.55 -0.001036    0.24    121.78   
    91. A(C  14,C  13,H  34)          120.02  0.000910   -0.22    119.80   
    92. A(C  12,C  13,H  34)          118.43  0.000128   -0.03    118.40   
    93. A(C  15,C  14,C  21)          121.38 -0.000046    0.01    121.39   
    94. A(C  13,C  14,C  21)          117.26  0.000100   -0.03    117.23   
    95. A(C  13,C  14,C  15)          121.36 -0.000054    0.02    121.38   
    96. A(C  16,C  15,C  20)          118.12 -0.000841    0.18    118.30   
    97. A(C  14,C  15,C  20)          120.92  0.000454   -0.10    120.82   
    98. A(C  14,C  15,C  16)          120.96  0.000387   -0.08    120.87   
    99. A(C  15,C  16,C  17)          120.99  0.000435   -0.11    120.89   
   100. A(C  17,C  16,H  35)          119.11 -0.001452    0.38    119.50   
   101. A(C  15,C  16,H  35)          119.89  0.001018   -0.28    119.61   
   102. A(C  16,C  17,C  18)          120.11 -0.000332    0.08    120.20   
   103. A(C  18,C  17,H  36)          120.09 -0.000033    0.01    120.10   
   104. A(C  16,C  17,H  36)          119.80  0.000365   -0.10    119.70   
   105. A(C  17,C  18,C  19)          119.67  0.000634   -0.14    119.53   
   106. A(C  19,C  18,H  37)          120.17 -0.000321    0.07    120.24   
   107. A(C  17,C  18,H  37)          120.17 -0.000313    0.07    120.24   
   108. A(C  18,C  19,C  20)          120.11 -0.000327    0.08    120.19   
   109. A(C  20,C  19,H  38)          119.80  0.000361   -0.10    119.70   
   110. A(C  18,C  19,H  38)          120.09 -0.000033    0.01    120.11   
   111. A(C  15,C  20,C  19)          121.00  0.000432   -0.11    120.89   
   112. A(C  19,C  20,H  39)          119.11 -0.001444    0.38    119.49   
   113. A(C  15,C  20,H  39)          119.88  0.001013   -0.28    119.61   
   114. A(C  14,C  21,C  22)          121.53 -0.001033    0.24    121.76   
   115. A(C  22,C  21,H  40)          118.45  0.000094   -0.02    118.43   
   116. A(C  14,C  21,H  40)          120.02  0.000941   -0.22    119.80   
   117. A(C  11,C  22,C  21)          120.93  0.002570   -0.61    120.32   
   118. A(C  21,C  22,H  41)          117.42 -0.004449    1.16    118.58   
   119. A(C  11,C  22,H  41)          121.64  0.001881   -0.54    121.11   
   120. A(O  24,C  23,C  25)          123.52 -0.006870    1.47    125.00   
   121. A(N  10,C  23,C  25)          108.59  0.000504   -0.02    108.58   
   122. A(N  10,C  23,O  24)          127.85  0.006349   -1.45    126.40   
   123. A(C  26,C  25,H  42)          109.65  0.000898   -0.47    109.19   
   124. A(C  23,C  25,H  42)          109.23  0.000739   -0.56    108.67   
   125. A(C   7,C  25,H  42)          110.72 -0.001717    1.16    111.89   
   126. A(C  23,C  25,C  26)          109.25  0.001053   -0.42    108.83   
   127. A(C   7,C  25,C  26)          115.45  0.000818   -0.17    115.28   
   128. A(C   7,C  25,C  23)          102.18 -0.001880    0.47    102.65   
   129. A(C  25,C  26,C  27)          108.80  0.000180   -0.28    108.52   
   130. A(C  27,C  26,H  44)          111.51 -0.001515    0.69    112.21   
   131. A(C  25,C  26,H  44)          109.45  0.001091   -0.20    109.24   
   132. A(C  27,C  26,H  43)          109.96  0.000559   -0.38    109.57   
   133. A(C  25,C  26,H  43)          111.19  0.000163   -0.33    110.86   
   134. A(H  43,C  26,H  44)          105.93 -0.000499    0.53    106.46   
   135. A(C   5,C  27,C  26)          110.66 -0.000743    0.62    111.28   
   136. A(C   1,C  27,C  26)          120.66  0.001096    0.11    120.77   
   137. A(C  26,C  27,H  45)          108.48 -0.001140    0.05    108.53   
   138. A(C   1,C  27,C   5)          102.24 -0.001684    0.73    102.97   
   139. A(C   5,C  27,H  45)          109.17  0.002732   -1.34    107.83   
   140. A(C   1,C  27,H  45)          105.09  0.000126   -0.37    104.72   
   141. D(C   3,N   2,C   1,C  27)      9.50  0.000448   -0.31      9.19   
   142. D(H  28,N   2,C   1,C  27)   -168.62  0.000632   -0.81   -169.43   
   143. D(C   3,N   2,C   1,O   0)   -172.54  0.000565   -1.06   -173.61   
   144. D(H  28,N   2,C   1,O   0)      9.34  0.000749   -1.56      7.77   
   145. D(C   5,C   3,N   2,C   1)     11.95  0.000875   -1.00     10.95   
   146. D(O   4,C   3,N   2,H  28)      8.69  0.000549   -1.53      7.16   
   147. D(C   5,C   3,N   2,H  28)   -169.93  0.000688   -0.50   -170.43   
   148. D(O   4,C   3,N   2,C   1)   -169.43  0.000735   -2.03   -171.46   
   149. D(C  27,C   5,C   3,O   4)    153.78 -0.001333    2.79    156.57   
   150. D(C   6,C   5,C   3,O   4)     30.51  0.000484    1.13     31.64   
   151. D(C  27,C   5,C   3,N   2)    -27.65 -0.001336    1.71    -25.93   
   152. D(H  29,C   5,C   3,N   2)     86.14  0.000239    0.43     86.58   
   153. D(C   6,C   5,C   3,N   2)   -150.91  0.000481    0.05   -150.86   
   154. D(C   7,C   6,C   5,C  27)     55.31  0.001018   -1.31     54.00   
   155. D(C   7,C   6,C   5,H  29)    -64.63 -0.000790    0.01    -64.62   
   156. D(C   7,C   6,C   5,C   3)    174.27 -0.001457    0.51    174.79   
   157. D(H  30,C   6,C   5,H  29)    175.52 -0.000715    0.20    175.72   
   158. D(H  30,C   6,C   5,C   3)     54.43 -0.001382    0.70     55.13   
   159. D(H  30,C   6,C   5,C  27)    -64.53  0.001094   -1.13    -65.66   
   160. D(C  25,C   7,C   6,H  30)     79.39  0.000305    0.54     79.94   
   161. D(C  25,C   7,C   6,C   5)    -40.64  0.000065    0.69    -39.95   
   162. D(C   8,C   7,C   6,H  31)    -43.57 -0.001315    2.06    -41.50   
   163. D(C   8,C   7,C   6,C   5)     79.20 -0.001555    2.06     81.26   
   164. D(C  25,C   7,C   6,H  31)   -163.40  0.000305    0.69   -162.71   
   165. D(C   8,C   7,C   6,H  30)   -160.77 -0.001315    1.91   -158.85   
   166. D(N  10,C   8,C   7,C  25)    -25.19 -0.000922    1.28    -23.91   
   167. D(O   9,C   8,C   7,H  32)    -91.34  0.000535    0.50    -90.84   
   168. D(O   9,C   8,C   7,C   6)     26.96  0.000539    0.19     27.15   
   169. D(O   9,C   8,C   7,C  25)    155.43 -0.001266    1.60    157.03   
   170. D(N  10,C   8,C   7,C   6)   -153.66  0.000883   -0.13   -153.79   
   171. D(C  11,N  10,C   8,C   7)   -170.06  0.000272   -0.30   -170.36   
   172. D(C  23,N  10,C   8,O   9)   -169.37  0.000752   -1.11   -170.48   
   173. D(C  23,N  10,C   8,C   7)     11.28  0.000489   -0.78     10.50   
   174. D(C  11,N  10,C   8,O   9)      9.29  0.000535   -0.63      8.66   
   175. D(C  22,C  11,N  10,C  23)   -168.02 -0.001528    5.22   -162.80   
   176. D(C  22,C  11,N  10,C   8)     13.50 -0.001327    4.69     18.19   
   177. D(C  12,C  11,N  10,C  23)     11.79 -0.001550    5.28     17.07   
   178. D(C  12,C  11,N  10,C   8)   -166.68 -0.001350    4.74   -161.94   
   179. D(H  33,C  12,C  11,C  22)    179.56  0.000327   -0.77    178.79   
   180. D(H  33,C  12,C  11,N  10)     -0.26  0.000340   -0.82     -1.08   
   181. D(C  13,C  12,C  11,C  22)     -0.17  0.000008   -0.02     -0.19   
   182. D(C  13,C  12,C  11,N  10)   -179.98  0.000021   -0.07   -180.06   
   183. D(H  34,C  13,C  12,H  33)     -0.61 -0.000236    0.54     -0.07   
   184. D(C  14,C  13,C  12,H  33)   -179.68 -0.000357    0.83   -178.86   
   185. D(C  14,C  13,C  12,C  11)      0.05 -0.000035    0.12      0.18   
   186. D(H  34,C  13,C  12,C  11)    179.12  0.000087   -0.16    178.96   
   187. D(C  21,C  14,C  13,H  34)   -178.97 -0.000093    0.21   -178.76   
   188. D(C  21,C  14,C  13,C  12)      0.09  0.000023   -0.08      0.01   
   189. D(C  15,C  14,C  13,H  34)      1.04 -0.000102    0.23      1.27   
   190. D(C  15,C  14,C  13,C  12)   -179.90  0.000014   -0.06   -179.96   
   191. D(C  20,C  15,C  14,C  21)   -129.95  0.001146   -4.22   -134.17   
   192. D(C  20,C  15,C  14,C  13)     50.04  0.001156   -4.24     45.80   
   193. D(C  16,C  15,C  14,C  21)     50.06  0.001150   -4.23     45.82   
   194. D(C  16,C  15,C  14,C  13)   -129.95  0.001159   -4.25   -134.21   
   195. D(H  35,C  16,C  15,C  20)   -179.12 -0.000050    0.15   -178.97   
   196. D(H  35,C  16,C  15,C  14)      0.88 -0.000053    0.16      1.04   
   197. D(C  17,C  16,C  15,C  20)     -0.05  0.000006   -0.01     -0.06   
   198. D(C  17,C  16,C  15,C  14)    179.94  0.000002    0.00    179.95   
   199. D(C  18,C  17,C  16,C  15)      0.11 -0.000011    0.02      0.12   
   200. D(C  18,C  17,C  16,H  35)    179.18  0.000067   -0.14    179.04   
   201. D(H  36,C  17,C  16,H  35)     -0.55  0.000017   -0.03     -0.57   
   202. D(H  36,C  17,C  16,C  15)   -179.62 -0.000060    0.13   -179.49   
   203. D(C  19,C  18,C  17,C  16)     -0.05  0.000006   -0.01     -0.06   
   204. D(H  37,C  18,C  17,H  36)     -0.33  0.000056   -0.13     -0.45   
   205. D(H  37,C  18,C  17,C  16)    179.95  0.000006   -0.01    179.94   
   206. D(C  19,C  18,C  17,H  36)    179.68  0.000056   -0.13    179.55   
   207. D(H  38,C  19,C  18,H  37)     -0.33  0.000058   -0.13     -0.46   
   208. D(H  38,C  19,C  18,C  17)    179.67  0.000058   -0.13    179.54   
   209. D(C  20,C  19,C  18,H  37)    179.95  0.000006   -0.01    179.94   
   210. D(C  20,C  19,C  18,C  17)     -0.06  0.000006   -0.01     -0.06   
   211. D(H  39,C  20,C  19,H  38)     -0.54  0.000019   -0.03     -0.57   
   212. D(H  39,C  20,C  19,C  18)    179.19  0.000069   -0.15    179.04   
   213. D(C  15,C  20,C  19,H  38)   -179.62 -0.000061    0.14   -179.48   
   214. D(C  15,C  20,C  19,C  18)      0.11 -0.000011    0.02      0.13   
   215. D(H  39,C  20,C  15,C  16)   -179.13 -0.000053    0.16   -178.97   
   216. D(H  39,C  20,C  15,C  14)      0.87 -0.000050    0.15      1.02   
   217. D(C  19,C  20,C  15,C  16)     -0.06  0.000005   -0.01     -0.06   
   218. D(C  19,C  20,C  15,C  14)    179.95  0.000008   -0.02    179.93   
   219. D(H  40,C  21,C  14,C  15)      0.89 -0.000075    0.16      1.05   
   220. D(H  40,C  21,C  14,C  13)   -179.10 -0.000084    0.18   -178.91   
   221. D(C  22,C  21,C  14,C  15)    179.88  0.000033   -0.08    179.79   
   222. D(C  22,C  21,C  14,C  13)     -0.11  0.000024   -0.06     -0.17   
   223. D(H  41,C  22,C  21,H  40)     -0.67 -0.000273    0.63     -0.04   
   224. D(H  41,C  22,C  21,C  14)   -179.68 -0.000388    0.87   -178.80   
   225. D(C  11,C  22,C  21,H  40)    179.00  0.000057   -0.07    178.92   
   226. D(C  11,C  22,C  21,C  14)     -0.01 -0.000058    0.17      0.17   
   227. D(H  41,C  22,C  11,C  12)    179.80  0.000361   -0.87    178.93   
   228. D(H  41,C  22,C  11,N  10)     -0.38  0.000347   -0.82     -1.20   
   229. D(C  21,C  22,C  11,C  12)      0.14  0.000037   -0.12      0.02   
   230. D(C  21,C  22,C  11,N  10)    179.96  0.000023   -0.07    179.89   
   231. D(C  25,C  23,N  10,C  11)   -170.43  0.000687   -0.64   -171.08   
   232. D(C  25,C  23,N  10,C   8)      8.22  0.000482   -0.17      8.05   
   233. D(O  24,C  23,N  10,C  11)      7.49  0.000024   -0.24      7.25   
   234. D(O  24,C  23,N  10,C   8)   -173.85 -0.000182    0.23   -173.62   
   235. D(H  42,C  25,C  23,N  10)   -140.80  0.001703   -0.38   -141.18   
   236. D(C  26,C  25,C  23,O  24)    -78.78 -0.000171    0.52    -78.26   
   237. D(C   7,C  25,C  23,O  24)    158.47 -0.000588    0.66    159.13   
   238. D(C   7,C  25,C  23,N  10)    -23.50 -0.000891    0.95    -22.55   
   239. D(C  26,C  25,C   7,H  32)    159.15 -0.000449   -0.22    158.93   
   240. D(C  26,C  25,C   7,C   8)    -90.16 -0.000094   -0.85    -91.01   
   241. D(C  26,C  25,C   7,C   6)     36.04 -0.000207    0.03     36.08   
   242. D(C  26,C  25,C  23,N  10)     99.26 -0.000474    0.81    100.07   
   243. D(C  23,C  25,C   7,H  32)    -82.41  0.000007   -0.51    -82.92   
   244. D(C  23,C  25,C   7,C   8)     28.29  0.000362   -1.14     27.14   
   245. D(C  23,C  25,C   7,C   6)    154.49  0.000248   -0.25    154.23   
   246. D(H  43,C  26,C  25,H  42)   -156.37 -0.000642    0.42   -155.95   
   247. D(H  43,C  26,C  25,C  23)    -36.68  0.001447   -0.83    -37.51   
   248. D(H  43,C  26,C  25,C   7)     77.75  0.000288   -0.63     77.12   
   249. D(C  27,C  26,C  25,H  42)     82.39 -0.001560    1.30     83.69   
   250. D(C  27,C  26,C  25,C  23)   -157.92  0.000529    0.05   -157.87   
   251. D(C  27,C  26,C  25,C   7)    -43.49 -0.000631    0.25    -43.24   
   252. D(C   5,C  27,C  26,C  25)     59.29  0.000756   -0.47     58.82   
   253. D(C   1,C  27,C  26,H  44)    -60.77 -0.000887    1.15    -59.62   
   254. D(C   1,C  27,C  26,H  43)     56.42 -0.002077    1.99     58.41   
   255. D(C  26,C  27,C   5,H  29)     51.36 -0.000294    0.07     51.44   
   256. D(C  26,C  27,C   5,C   6)    -68.34 -0.000611    0.69    -67.65   
   257. D(C  26,C  27,C   5,C   3)    161.98 -0.000086   -0.47    161.50   
   258. D(C   1,C  27,C   5,H  29)    -78.38 -0.000063   -0.88    -79.26   
   259. D(C   1,C  27,C   5,C   6)    161.92 -0.000380   -0.26    161.66   
   260. D(C   1,C  27,C   5,C   3)     32.23  0.000145   -1.43     30.81   
   261. D(H  45,C  27,C   1,O   0)    -90.22  0.000942    0.82    -89.40   
   262. D(C   1,C  27,C  26,C  25)    178.42 -0.001410    1.14    179.57   
   263. D(C  26,C  27,C   1,N   2)   -149.55  0.000595   -0.16   -149.71   
   264. D(C  26,C  27,C   1,O   0)     32.55  0.000274    0.65     33.19   
   265. D(C   5,C  27,C   1,N   2)    -26.30 -0.001116    1.32    -24.98   
   266. D(C   5,C  27,C  26,H  43)    -62.71  0.000088    0.37    -62.33   
   267. D(C   5,C  27,C   1,O   0)    155.79 -0.001437    2.13    157.92   
   268. D(C   5,C  27,C  26,H  44)   -179.90  0.001278   -0.47   -180.36   
    ----------------------------------------------------------------------------

Geometry step timings:
Preparation and reading OPT file:      0.000 s ( 0.127 %)
Internal coordinates            :      0.000 s ( 0.215 %)
B/P matrices and projection     :      0.008 s (37.983 %)
Hessian update/contruction      :      0.002 s ( 7.665 %)
Making the step                 :      0.009 s (45.438 %)
Converting the step to Cartesian:      0.001 s ( 2.649 %)
Storing new data                :      0.000 s ( 0.210 %)
Checking convergence            :      0.000 s ( 0.381 %)
Final printing                  :      0.001 s ( 5.333 %)
Total time                      :      0.020 s

Time for energy+gradient        :     85.602 s
Time for complete geometry iter :     85.834 s

         *************************************************************
         *                GEOMETRY OPTIMIZATION CYCLE   3            *
         *************************************************************
---------------------------------
CARTESIAN COORDINATES (ANGSTROEM)
---------------------------------
  O     -5.711189   -2.963040    0.146459
  C     -5.581537   -1.774476    0.016127
  N     -6.329725   -0.961312   -0.837975
  C     -5.889494    0.364910   -0.908020
  O     -6.464959    1.264212   -1.460357
  C     -4.539833    0.370128   -0.202700
  C     -4.037793    1.612402    0.507738
  C     -2.722670    1.280309    1.229216
  C     -1.487427    1.302103    0.330950
  O     -1.360274    1.956997   -0.669946
  N     -0.519535    0.440812    0.891107
  C      0.844855    0.343335    0.447103
  C      1.627126   -0.764898    0.780421
  C      2.940671   -0.849503    0.346372
  C      3.525989    0.155250   -0.425908
  C      4.932097    0.054992   -0.886167
  C      5.802162    1.143776   -0.776481
  C      7.119389    1.049883   -1.206405
  C      7.592263   -0.135765   -1.757682
  C      6.737489   -1.226214   -1.874031
  C      5.421332   -1.131223   -1.441189
  C      2.732285    1.258040   -0.747462
  C      1.416289    1.357665   -0.324992
  C     -1.086401   -0.323236    1.933280
  O     -0.498799   -1.066469    2.674702
  C     -2.589040   -0.086822    1.945268
  C     -3.290240   -1.278868    1.236226
  C     -4.655549   -0.820889    0.761324
  H     -7.135608   -1.298250   -1.346236
  H     -3.819111    0.099630   -0.985983
  H     -4.778511    1.941931    1.240421
  H     -3.879389    2.438196   -0.184987
  H     -2.539647    2.061844    1.974056
  H      1.233396   -1.559131    1.388580
  H      3.524013   -1.713336    0.636697
  H      5.450141    2.067423   -0.334518
  H      7.778874    1.902385   -1.104679
  H      8.618611   -0.209352   -2.093935
  H      7.093734   -2.151542   -2.308634
  H      4.761123   -1.982303   -1.551569
  H      3.138548    2.052861   -1.359001
  H      0.845713    2.220421   -0.618844
  H     -2.925731   -0.037946    2.979944
  H     -2.701878   -1.624198    0.381350
  H     -3.354897   -2.119449    1.926237
  H     -5.236864   -0.492200    1.634119

----------------------------
CARTESIAN COORDINATES (A.U.)
----------------------------
  NO LB      ZA    FRAG     MASS         X           Y           Z
   0 O     8.0000    0    15.999  -10.792582   -5.599334    0.276768
   1 C     6.0000    0    12.011  -10.547576   -3.353274    0.030475
   2 N     7.0000    0    14.007  -11.961446   -1.816617   -1.583544
   3 C     6.0000    0    12.011  -11.129531    0.689580   -1.715909
   4 O     8.0000    0    15.999  -12.217003    2.389014   -2.759676
   5 C     6.0000    0    12.011   -8.579041    0.699440   -0.383047
   6 C     6.0000    0    12.011   -7.630322    3.046999    0.959487
   7 C     6.0000    0    12.011   -5.145102    2.419434    2.322882
   8 C     6.0000    0    12.011   -2.810829    2.460618    0.625405
   9 O     8.0000    0    15.999   -2.570546    3.698189   -1.266015
  10 N     7.0000    0    14.007   -0.981778    0.833013    1.683948
  11 C     6.0000    0    12.011    1.596544    0.648810    0.844902
  12 C     6.0000    0    12.011    3.074823   -1.445448    1.474783
  13 C     6.0000    0    12.011    5.557063   -1.605328    0.654548
  14 C     6.0000    0    12.011    6.663154    0.293380   -0.804850
  15 C     6.0000    0    12.011    9.320313    0.103920   -1.674612
  16 C     6.0000    0    12.011   10.964497    2.161423   -1.467336
  17 C     6.0000    0    12.011   13.453695    1.983992   -2.279774
  18 C     6.0000    0    12.011   14.347298   -0.256559   -3.321537
  19 C     6.0000    0    12.011   12.732009   -2.317209   -3.541405
  20 C     6.0000    0    12.011   10.244832   -2.137701   -2.723452
  21 C     6.0000    0    12.011    5.163271    2.377350   -1.412498
  22 C     6.0000    0    12.011    2.676398    2.565614   -0.614145
  23 C     6.0000    0    12.011   -2.053000   -0.610828    3.653370
  24 O     8.0000    0    15.999   -0.942593   -2.015334    5.054453
  25 C     6.0000    0    12.011   -4.892576   -0.164071    3.676023
  26 C     6.0000    0    12.011   -6.217652   -2.416710    2.336128
  27 C     6.0000    0    12.011   -8.797713   -1.551255    1.438695
  28 H     1.0000    0     1.008  -13.484344   -2.453336   -2.544017
  29 H     1.0000    0     1.008   -7.217075    0.188274   -1.863237
  30 H     1.0000    0     1.008   -9.030077    3.669717    2.344057
  31 H     1.0000    0     1.008   -7.330983    4.607523   -0.349574
  32 H     1.0000    0     1.008   -4.799236    3.896320    3.730425
  33 H     1.0000    0     1.008    2.330781   -2.946330    2.624036
  34 H     1.0000    0     1.008    6.659420   -3.237736    1.203183
  35 H     1.0000    0     1.008   10.299274    3.906862   -0.632147
  36 H     1.0000    0     1.008   14.699942    3.594987   -2.087541
  37 H     1.0000    0     1.008   16.286814   -0.395618   -3.956964
  38 H     1.0000    0     1.008   13.405215   -4.065825   -4.362685
  39 H     1.0000    0     1.008    8.997219   -3.746010   -2.932041
  40 H     1.0000    0     1.008    5.930996    3.879344   -2.568140
  41 H     1.0000    0     1.008    1.598165    4.195987   -1.169446
  42 H     1.0000    0     1.008   -5.528830   -0.071707    5.631277
  43 H     1.0000    0     1.008   -5.105810   -3.069289    0.720648
  44 H     1.0000    0     1.008   -6.339836   -4.005178    3.640061
  45 H     1.0000    0     1.008   -9.896239   -0.930123    3.088038

--------------------------------
INTERNAL COORDINATES (ANGSTROEM)
--------------------------------
 O      0   0   0     0.000000000000     0.00000000     0.00000000
 C      1   0   0     1.202696811906     0.00000000     0.00000000
 N      2   1   0     1.396606737862   125.72685107     0.00000000
 C      3   2   1     1.399133543166   114.45358209   186.40482989
 O      4   3   2     1.202073707861   125.55706837   188.54774787
 C      4   3   2     1.522855410819   105.00607017    10.95764929
 C      6   4   3     1.516579524586   120.87436563   209.11382108
 C      7   6   4     1.536347137790   109.04389646   174.79473327
 C      8   7   6     1.527476650729   114.39285286    81.25765676
 O      9   8   7     1.202849739207   125.63296519    27.16499159
 N      9   8   7     1.411528869709   108.20624883   206.20999222
 C     11   9   8     1.438123691199   124.70736657   189.62827951
 C     12  11   9     1.396864981677   120.75783044   198.06413340
 C     13  12  11     1.385985990552   120.29486164   179.94303096
 C     14  13  12     1.395901747572   121.78400839     0.17394680
 C     15  14  13     1.482912460074   121.37550867   180.03779156
 C     16  15  14     1.398031651765   120.87133876   225.79121702
 C     17  16  15     1.388789755273   120.88659557   179.94616702
 C     18  17  16     1.390424007541   120.19583276     0.12513042
 C     19  18  17     1.390415661687   119.52869724   359.93936598
 C     20  19  18     1.388756960257   120.19200802   359.93637626
 C     15  14  13     1.396247577743   117.22962810     0.00000000
 C     22  15  14     1.385732150324   121.76387389   359.82638397
 C     11   9   8     1.411110357840   110.36592264    10.50162627
 O     24  11   9     1.203069531771   126.40155555   186.36729693
 C     24  11   9     1.521170118101   108.57178320     8.05772327
 C     26  24  11     1.554153628407   108.83727884   100.06321058
 C     27  26  24     1.516359551673   108.50949077   202.12634656
 H      3   2   1     1.010595334698   122.72777546     7.78119171
 H      6   4   3     1.098244119255   104.50357398    86.55951317
 H      7   6   4     1.092738113623   109.67716130    55.13639951
 H      7   6   4     1.089447487642   111.78740849   296.33075269
 H      8   7   6     1.095025268455   107.95239479   197.41622466
 H     13  12  11     1.075027826571   121.06613961   358.93274805
 H     14  13  12     1.082028148566   118.40142416   178.95742683
 H     17  16  15     1.082761861640   119.60654106     1.03665037
 H     18  17  16     1.082602836434   119.69950717   180.51386593
 H     19  18  17     1.082529760253   120.23601671   179.93758182
 H     20  19  18     1.082599490783   120.10763737   179.54157927
 H     21  20  19     1.082772625043   119.49361389   179.03525006
 H     22  15  14     1.082021543671   119.79552856   181.08785204
 H     23  22  15     1.075292689321   118.57376740   181.21529818
 H     26  24  11     1.089176052010   108.65199677   218.83438038
 H     27  26  24     1.093724753475   110.85827036   322.49269318
 H     27  26  24     1.089436768058   109.24586826    79.50709979
 H     28  27  26     1.098969917591   108.53441009   300.32762069

---------------------------
INTERNAL COORDINATES (A.U.)
---------------------------
 O      0   0   0     0.000000000000     0.00000000     0.00000000
 C      1   0   0     2.272767596642     0.00000000     0.00000000
 N      2   1   0     2.639204251348   125.72685107     0.00000000
 C      3   2   1     2.643979221366   114.45358209   186.40482989
 O      4   3   2     2.271590100645   125.55706837   188.54774787
 C      4   3   2     2.877779668008   105.00607017    10.95764929
 C      6   4   3     2.865919961780   120.87436563   209.11382108
 C      7   6   4     2.903275337057   109.04389646   174.79473327
 C      8   7   6     2.886512545836   114.39285286    81.25765676
 O      9   8   7     2.273056587360   125.63296519    27.16499159
 N      9   8   7     2.667402993874   108.20624883   206.20999222
 C     11   9   8     2.717659923070   124.70736657   189.62827951
 C     12  11   9     2.639692261435   120.75783044   198.06413340
 C     13  12  11     2.619133947596   120.29486164   179.94303096
 C     14  13  12     2.637872012773   121.78400839     0.17394680
 C     15  14  13     2.802298430119   121.37550867   180.03779156
 C     16  15  14     2.641896948389   120.87133876   225.79121702
 C     17  16  15     2.624432295061   120.88659557   179.94616702
 C     18  17  16     2.627520584281   120.19583276     0.12513042
 C     19  18  17     2.627504812904   119.52869724   359.93936598
 C     20  19  18     2.624370321462   120.19200802   359.93637626
 C     15  14  13     2.638525537085   117.22962810     0.00000000
 C     22  15  14     2.618654259081   121.76387389   359.82638397
 C     11   9   8     2.666612121058   110.36592264    10.50162627
 O     24  11   9     2.273471935113   126.40155555   186.36729693
 C     24  11   9     2.874594926316   108.57178320     8.05772327
 C     26  24  11     2.936924727729   108.83727884   100.06321058
 C     27  26  24     2.865504273217   108.50949077   202.12634656
 H      3   2   1     1.909748414798   122.72777546     7.78119171
 H      6   4   3     2.075380613582   104.50357398    86.55951317
 H      7   6   4     2.064975770845   109.67716130    55.13639951
 H      7   6   4     2.058757388931   111.78740849   296.33075269
 H      8   7   6     2.069297867104   107.95239479   197.41622466
 H     13  12  11     2.031508178564   121.06613961   358.93274805
 H     14  13  12     2.044736869983   118.40142416   178.95742683
 H     17  16  15     2.046123386755   119.60654106     1.03665037
 H     18  17  16     2.045822872667   119.69950717   180.51386593
 H     19  18  17     2.045684778698   120.23601671   179.93758182
 H     20  19  18     2.045816550302   120.10763737   179.54157927
 H     21  20  19     2.046143726639   119.49361389   179.03525006
 H     22  15  14     2.044724388540   119.79552856   181.08785204
 H     23  22  15     2.032008696624   118.57376740   181.21529818
 H     26  24  11     2.058244449925   108.65199677   218.83438038
 H     27  26  24     2.066840249958   110.85827036   322.49269318
 H     27  26  24     2.058737131854   109.24586826    79.50709979
 H     28  27  26     2.076752173664   108.53441009   300.32762069



           ************************************************************
           *        Program running with 16 parallel MPI-processes    *
           *              working on a common directory               *
           ************************************************************
------------------------------------------------------------------------------
                   ___                                                        
                  /   \      - P O W E R E D   B Y -                         
                 /     \                                                     
                 |  |  |   _    _      __       _____    __    __             
                 |  |  |  | |  | |    /  \     |  _  \  |  |  /  |          
                  \  \/   | |  | |   /    \    | | | |  |  | /  /          
                 / \  \   | |__| |  /  /\  \   | |_| |  |  |/  /          
                |  |  |   |  __  | /  /__\  \  |    /   |      \           
                |  |  |   | |  | | |   __   |  |    \   |  |\   \          
                \     /   | |  | | |  |  |  |  | |\  \  |  | \   \       
                 \___/    |_|  |_| |__|  |__|  |_| \__\ |__|  \__/        
                                                                              
                      - O R C A' S   B I G   F R I E N D -                    
                                      &                                       
                       - I N T E G R A L  F E E D E R -                       
                                                                              
 v1 FN, 2020, v2 2021, v3 2022-2024                                           
------------------------------------------------------------------------------


----------------------
SHARK INTEGRAL PACKAGE
----------------------

Number of atoms                             ...     46
Number of basis functions                   ...    976
Number of shells                            ...    380
Maximum angular momentum                    ...      3
Integral batch strategy                     ... SHARK/LIBINT Hybrid
RI-J (if used) integral strategy            ... SPLIT-RIJ (Revised 2003 algorithm where possible)
Printlevel                                  ...      1
Contraction scheme used                     ... SEGMENTED contraction
Prescreening option                         ... SCHWARTZ
   Thresh                                   ... 2.500e-11
   Tcut                                     ... 2.500e-12
   Tpresel                                  ... 2.500e-12 
Coulomb Range Separation                    ... NOT USED
Exchange Range Separation                   ... NOT USED
Multipole approximations                    ... NOT USED
Finite Nucleus Model                        ... NOT USED
CABS basis                                  ... NOT available
Auxiliary Coulomb fitting basis             ... AVAILABLE
   # of basis functions in Aux-J            ...   1570
   # of shells in Aux-J                     ...    510
   Maximum angular momentum in Aux-J        ...      4
Auxiliary J/K fitting basis                 ... NOT available
Auxiliary Correlation fitting basis         ... NOT available
Auxiliary 'external' fitting basis          ... NOT available

Checking pre-screening integrals            ... done (  0.0 sec) Dimension = 380
   => SHARK Basis and OBASIS are compatible. Storing Pre-screening
Shell pair information
Shell pair cut-off parameter TPreSel        ...   2.5e-12
Total number of shell pairs                 ...     72390
Shell pairs after pre-screening             ...     42321
Total number of primitive shell pairs       ...    224116
Primitive shell pairs kept                  ...     86516
          la=0 lb=0:  10607 shell pairs
          la=1 lb=0:  12256 shell pairs
          la=1 lb=1:   3551 shell pairs
          la=2 lb=0:   6013 shell pairs
          la=2 lb=1:   3509 shell pairs
          la=2 lb=2:    874 shell pairs
          la=3 lb=0:   2840 shell pairs
          la=3 lb=1:   1679 shell pairs
          la=3 lb=2:    794 shell pairs
          la=3 lb=3:    198 shell pairs

Checking whether 4 symmetric matrices of dimension 976 fit in memory
:Max Core in MB      =   4096.00
 MB in use           =     62.13
 MB left             =   4033.87
 MB needed           =     14.55
 Data fit in memory  = YES
Calculating RI/J V-Matrix + Cholesky decomp.... done (  0.1 sec)
Calculating Nuclear repulsion               ... done (  0.0 sec) ENN=   2403.568203173561 Eh

Diagonalization of the overlap matrix:
Smallest eigenvalue                        ... 6.480e-06
Time for diagonalization                   ...    0.155 sec
Threshold for overlap eigenvalues          ... 1.000e-07
Number of eigenvalues below threshold      ... 0
Time for construction of square roots      ...    0.066 sec
Total time needed                          ...    0.226 sec

-------------------
DFT GRID GENERATION
-------------------

General Integration Accuracy     IntAcc      ... 4.388
Radial Grid Type                 RadialGrid  ... OptM3 with GC (2021)
Angular Grid (max. ang.)         AngularGrid ... 4 (Lebedev-302)
Angular grid pruning method      GridPruning ... 4 (adaptive)
Weight generation scheme         WeightScheme... mBecke (2022)
Basis function cutoff            BFCut       ... 1.0000e-11
Integration weight cutoff        WCut        ... 1.0000e-14
Partially contracted basis set               ... off
Rotationally invariant grid construction     ... off
Angular grids for H and He will be reduced by one unit

Total number of grid points                  ...   224207
Total number of batches                      ...     3527
Average number of points per batch           ...       63
Average number of grid points per atom       ...     4874

--------------------
COSX GRID GENERATION
--------------------

GRIDX 1
-------
General Integration Accuracy     IntAcc      ... 3.816
Radial Grid Type                 RadialGrid  ... OptM3 with GC (2021)
Angular Grid (max. ang.)         AngularGrid ... 1 (Lebedev-50)
Angular grid pruning method      GridPruning ... 4 (adaptive)
Weight generation scheme         WeightScheme... mBecke (2022)
Basis function cutoff            BFCut       ... 1.0000e-11
Integration weight cutoff        WCut        ... 1.0000e-14
Partially contracted basis set               ... on
Rotationally invariant grid construction     ... off
Angular grids for H and He will be reduced by one unit

Total number of grid points                  ...    28417
Total number of batches                      ...      246
Average number of points per batch           ...      115
Average number of grid points per atom       ...      618
UseSFitting                                  ... on

GRIDX 2
-------
General Integration Accuracy     IntAcc      ... 4.020
Radial Grid Type                 RadialGrid  ... OptM3 with GC (2021)
Angular Grid (max. ang.)         AngularGrid ... 2 (Lebedev-110)
Angular grid pruning method      GridPruning ... 4 (adaptive)
Weight generation scheme         WeightScheme... mBecke (2022)
Basis function cutoff            BFCut       ... 1.0000e-11
Integration weight cutoff        WCut        ... 1.0000e-14
Partially contracted basis set               ... on
Rotationally invariant grid construction     ... off
Angular grids for H and He will be reduced by one unit

Total number of grid points                  ...    62321
Total number of batches                      ...      508
Average number of points per batch           ...      122
Average number of grid points per atom       ...     1355
UseSFitting                                  ... on

GRIDX 3
-------
General Integration Accuracy     IntAcc      ... 4.338
Radial Grid Type                 RadialGrid  ... OptM3 with GC (2021)
Angular Grid (max. ang.)         AngularGrid ... 3 (Lebedev-194)
Angular grid pruning method      GridPruning ... 4 (adaptive)
Weight generation scheme         WeightScheme... mBecke (2022)
Basis function cutoff            BFCut       ... 1.0000e-11
Integration weight cutoff        WCut        ... 1.0000e-14
Partially contracted basis set               ... on
Rotationally invariant grid construction     ... off
Angular grids for H and He will be reduced by one unit

Total number of grid points                  ...   136295
Total number of batches                      ...     1088
Average number of points per batch           ...      125
Average number of grid points per atom       ...     2963
UseSFitting                                  ... on
Grids setup in   1.9 sec
Initializing property integral containers    ... done (  0.0 sec)

SHARK setup successfully completed in   2.6 seconds

Maximum memory used throughout the entire STARTUP-calculation: 103.8 MB


           ************************************************************
           *        Program running with 16 parallel MPI-processes    *
           *              working on a common directory               *
           ************************************************************
Occupation numbers will be reassigned to an Aufbau configuration
             **** ENERGY FILE WAS UPDATED (conjugate_row2_A2_H4.en.tmp) ****
Finished Guess after   0.8 sec
Maximum memory used throughout the entire GUESS-calculation: 98.9 MB


           ************************************************************
           *        Program running with 16 parallel MPI-processes    *
           *              working on a common directory               *
           ************************************************************
----------------------------------------D-I-I-S--------------------------------------------
Iteration    Energy (Eh)           Delta-E    RMSDP     MaxDP     DIISErr   Damp  Time(sec)
-------------------------------------------------------------------------------------------
               ***  Starting incremental Fock matrix formation  ***
    1    -1259.3858469865513143     0.00e+00  4.24e-04  6.11e-03  3.85e-02  0.700   6.9
    2    -1259.3905189397305548    -4.67e-03  3.79e-04  5.27e-03  3.06e-02  0.700   3.3
                               ***Turning on AO-DIIS***
    3    -1259.3942171918383792    -3.70e-03  3.00e-04  3.71e-03  2.31e-02  0.700   3.0
    4    -1259.3969429374992615    -2.73e-03  7.63e-04  1.23e-02  1.68e-02  0.000   2.9
                              *** Initializing SOSCF ***
---------------------------------------S-O-S-C-F--------------------------------------
Iteration    Energy (Eh)           Delta-E    RMSDP     MaxDP     MaxGrad    Time(sec)
--------------------------------------------------------------------------------------
    5    -1259.4038487524676384    -6.91e-03  5.70e-05  1.44e-03  9.88e-04     3.5
               *** Restarting incremental Fock matrix formation ***
    6    -1259.4038693748839250    -2.06e-05  1.23e-04  5.94e-03  3.88e-04     6.7
    7    -1259.4038459201524347     2.35e-05  7.47e-05  3.59e-03  9.66e-04     4.5
    8    -1259.4038804979304587    -3.46e-05  1.12e-05  4.42e-04  2.76e-05     4.1
    9    -1259.4038802846525869     2.13e-07  6.65e-06  3.24e-04  6.04e-05     3.5
   10    -1259.4038806578387266    -3.73e-07  4.81e-06  9.85e-05  1.70e-05     3.2
   11    -1259.4038806740077234    -1.62e-08  2.55e-06  4.46e-05  2.91e-05     3.0
   12    -1259.4038806533767456     2.06e-08  4.73e-06  1.54e-04  2.11e-06     2.7
                  *** Gradient check signals convergence ***

               *****************************************************
               *                     SUCCESS                       *
               *           SCF CONVERGED AFTER  12 CYCLES          *
               *****************************************************

Recomputing exchange energy using gridx3       ... done (   10.817 sec)
Old exchange energy                            :    -33.372899030 Eh
New exchange energy                            :    -33.372894366 Eh
Exchange energy change after final integration :      0.000004664 Eh
Total energy after final integration           :  -1259.403875998 Eh
             **** ENERGY FILE WAS UPDATED (conjugate_row2_A2_H4.en.tmp) ****

----------------
TOTAL SCF ENERGY
----------------

Total Energy       :      -1259.40387599822679 Eh          -34270.12173 eV

Components:
Nuclear Repulsion  :       2403.56820317356051 Eh           65404.41590 eV
Electronic Energy  :      -3662.97208383591442 Eh          -99674.53776 eV
One Electron Energy:      -6488.67119307741268 Eh         -176565.71959 eV
Two Electron Energy:       2825.69910924149826 Eh           76891.18183 eV

Virial components:
Potential Energy   :      -2513.40408943868397 Eh          -68393.20232 eV
Kinetic Energy     :       1254.00021344045717 Eh           34123.08059 eV
Virial Ratio       :          2.00430914006222

DFT components:
N(Alpha)           :       97.999947144038 electrons
N(Beta)            :       97.999947144038 electrons
N(Total)           :      195.999894288076 electrons
E(X)               :     -132.678196804217 Eh       
E(C)               :       -7.943035071825 Eh       
E(XC)              :     -140.621231876042 Eh       

---------------
SCF CONVERGENCE
---------------

  Last Energy change         ...   -2.0631e-08  Tolerance :   1.0000e-08
  Last MAX-Density change    ...    1.5361e-04  Tolerance :   1.0000e-07
  Last RMS-Density change    ...    4.7303e-06  Tolerance :   5.0000e-09
  Last DIIS Error            ...    9.8798e-04  Tolerance :   5.0000e-07
  Last Orbital Gradient      ...    2.1058e-06  Tolerance :   1.0000e-05
  Last Orbital Rotation      ...    5.3040e-06  Tolerance :   1.0000e-05


Total SCF time: 0 days 0 hours 1 min 1 sec 
Finished LeanSCF after  61.2 sec

Maximum memory used throughout the entire LEANSCF-calculation: 138.2 MB

-------------------------   --------------------
FINAL SINGLE POINT ENERGY     -1259.403875998227
-------------------------   --------------------



           ************************************************************
           *        Program running with 16 parallel MPI-processes    *
           *              working on a common directory               *
           ************************************************************
------------------------------------------------------------------------------
                         ORCA SCF GRADIENT CALCULATION
------------------------------------------------------------------------------

Nuc. rep. gradient        (SHARK) ... done (  0.0 sec)
HCore & Overlap gradient  (SHARK) ... done (  0.3 sec)
Split-RIJ-J gradient      (SHARK) ... done (  1.8 sec)
COSX-gradient                     ... done ( 18.8 sec)
XC gradient                       ... done (  2.4 sec)

------------------
CARTESIAN GRADIENT
------------------

   1   O   :    0.000402843    0.000380917    0.000400761
   2   C   :    0.000541916   -0.000674676   -0.001369264
   3   N   :   -0.000529089   -0.000315260   -0.000899155
   4   C   :   -0.001504299    0.000312049    0.000869150
   5   O   :    0.000629285    0.000125182    0.000341883
   6   C   :    0.001671406    0.000777991   -0.002586992
   7   C   :    0.001043433    0.001176590    0.000313614
   8   C   :   -0.001200523    0.003161552   -0.000139582
   9   C   :    0.002088402    0.000645036   -0.000285009
  10   O   :   -0.000755119   -0.001265147    0.001480264
  11   N   :   -0.000710911    0.000120553    0.000777362
  12   C   :    0.001387981   -0.000161116   -0.000491795
  13   C   :    0.000126539    0.001715827    0.001128688
  14   C   :   -0.000003423   -0.000146098    0.001101865
  15   C   :   -0.001321966    0.000036944    0.000444362
  16   C   :    0.001676034   -0.000125998   -0.000556982
  17   C   :   -0.000352335   -0.001171448    0.000678900
  18   C   :   -0.000093250    0.000302150    0.000182240
  19   C   :   -0.000332696    0.000022630    0.000106133
  20   C   :   -0.000222188   -0.000281860   -0.000078957
  21   C   :   -0.000524267    0.001228450   -0.000390926
  22   C   :   -0.000695241    0.000240898   -0.000879381
  23   C   :   -0.000784509   -0.001739096   -0.000835689
  24   C   :    0.001938524   -0.001341377   -0.002564355
  25   O   :   -0.001744045    0.001219718   -0.000270593
  26   C   :   -0.001741314   -0.003850179    0.002021623
  27   C   :    0.001419360    0.001103115    0.000028408
  28   C   :   -0.002218992   -0.001114700    0.002525758
  29   H   :   -0.000144518   -0.000061800    0.000045431
  30   H   :   -0.000024824    0.000155027    0.000537332
  31   H   :   -0.000003164   -0.000131676   -0.000316548
  32   H   :   -0.000757418    0.000014768    0.000402388
  33   H   :   -0.000662342   -0.000252651   -0.000329603
  34   H   :    0.001732504    0.000110814   -0.000896871
  35   H   :   -0.000584038    0.000273771   -0.000013770
  36   H   :    0.000395273   -0.000036902   -0.000268485
  37   H   :   -0.000219949   -0.000247293   -0.000030354
  38   H   :   -0.000210260    0.000010036    0.000067938
  39   H   :   -0.000130384    0.000265743    0.000146071
  40   H   :    0.000470975   -0.000019727   -0.000013757
  41   H   :   -0.000502084   -0.000184896    0.000376887
  42   H   :    0.001768359   -0.000268424   -0.000350234
  43   H   :    0.000111089    0.000592297   -0.000523111
  44   H   :   -0.000320376   -0.000796107    0.000492568
  45   H   :    0.000162497    0.000036736   -0.000357687
  46   H   :    0.000727105    0.000157636   -0.000020524

Difference to translation invariance:
           :   -0.0000000000   -0.0000000000   -0.0000000000

Difference to rotation invariance:
           :   -0.0001016795    0.0000051446   -0.0005071282

Norm of the Cartesian gradient     ...    0.0115049143
RMS gradient                       ...    0.0009793633
MAX gradient                       ...    0.0038501792

-------
TIMINGS
-------

Total SCF gradient time     ....       23.221 sec

Densities                   ....       0.007 sec  (  0.0%)
One electron gradient       ....       0.321 sec  (  1.4%)
RI-J Coulomb gradient       ....       1.762 sec  (  7.6%)
COSX gradient               ....      18.762 sec  ( 80.8%)
XC gradient                 ....       2.368 sec  ( 10.2%)

Maximum memory used throughout the entire SCFGRAD-calculation: 163.4 MB
------------------------------------------------------------------------------
                         ORCA GEOMETRY RELAXATION STEP
------------------------------------------------------------------------------

Reading the OPT-File                    .... done
Getting information on internals        .... done
Copying old internal coords+grads       .... done
Making the new internal coordinates     .... (2022 redundants) done
Validating the new internal coordinates .... (2022 redundants) done
Calculating the B-matrix                .... done
Calculating the G,G- and P matrices     .... done
Transforming gradient to internals      .... done
Projecting the internal gradient        .... done
Number of atoms                         ....  46
Number of internal coordinates          .... 268
Current Energy                          .... -1259.403875998 Eh
Current gradient norm                   ....     0.011504914 Eh/bohr
Maximum allowed component of the step   ....  0.300
Current trust radius                    ....  0.300
Updating the Hessian (BFGS)             .... done
Forming the augmented Hessian           .... done
Diagonalizing the augmented Hessian     .... done
Last element of RFO vector              ....  0.953183179
Lowest eigenvalues of augmented Hessian:
 -0.001528160  0.012788551  0.014981953  0.015679626  0.016518268
Length of the computed step             ....  0.317245946
Warning: the length of the step is outside the trust region - taking restricted step instead
The input lambda is                     ....     0.010642
   iter:   5  x=    0.004495  g=  266.712962 f(x)=     0.585701
   iter:  10  x=   -0.002309  g=   12.535509 f(x)=     0.000097
The output lambda is                    ....    -0.002309 (12 iterations)
The final length of the internal step   ....  0.300000000
Converting the step to Cartesian space:
 Initial RMS(Int)=    0.0183254167
Transforming coordinates:
 Iter   0:  RMS(Cart)=    0.0984981014 RMS(Int)=    0.5422456735
 Iter   5:  RMS(Cart)=    0.0000003070 RMS(Int)=    0.0000001297
done
Storing new coordinates                 .... done
The predicted energy change is          ....    -0.000830827
Previously predicted energy change      ....    -0.002657015
Actually observed energy change         ....    -0.003003696
Ratio of predicted to observed change   ....     1.130477684
New trust radius                        ....     0.450000000

                                .--------------------.
          ----------------------|Geometry convergence|-------------------------
          Item                value                   Tolerance       Converged
          ---------------------------------------------------------------------
          Energy change      -0.0030036957            0.0000050000      NO
          RMS gradient        0.0005589252            0.0001000000      NO
          MAX gradient        0.0020007575            0.0003000000      NO
          RMS step            0.0183254167            0.0020000000      NO
          MAX step            0.1227368263            0.0040000000      NO
          -------------------------------------------------------------------------
          ........................................................
          Max(Bonds)      0.0044      Max(Angles)    0.71
          Max(Dihed)        7.03      Max(Improp)    0.00
          ---------------------------------------------------------------------

The optimization has not yet converged - more geometry cycles are needed


    ---------------------------------------------------------------------------
                         Redundant Internal Coordinates
                            (Angstroem and degrees)

        Definition                    Value    dE/dq     Step     New-Value
    ----------------------------------------------------------------------------
     1. B(C   1,O   0)                1.2027 -0.000375 -0.0016    1.2011   
     2. B(N   2,C   1)                1.3966  0.000739  0.0024    1.3990   
     3. B(C   3,N   2)                1.3991  0.000704  0.0028    1.4020   
     4. B(O   4,C   3)                1.2021 -0.000366 -0.0016    1.2005   
     5. B(C   5,C   3)                1.5229  0.000529  0.0011    1.5239   
     6. B(C   6,C   5)                1.5166  0.000377 -0.0002    1.5164   
     7. B(C   7,C   6)                1.5363 -0.000365  0.0008    1.5371   
     8. B(C   8,C   7)                1.5275  0.001261 -0.0009    1.5266   
     9. B(O   9,C   8)                1.2028 -0.002001 -0.0011    1.2018   
    10. B(N  10,C   8)                1.4115  0.000011  0.0038    1.4153   
    11. B(C  11,N  10)                1.4381  0.001687 -0.0012    1.4369   
    12. B(C  12,C  11)                1.3969 -0.000323 -0.0000    1.3968   
    13. B(C  13,C  12)                1.3860 -0.001381 -0.0003    1.3857   
    14. B(C  14,C  13)                1.3959 -0.000688  0.0005    1.3964   
    15. B(C  15,C  14)                1.4829  0.000485  0.0006    1.4835   
    16. B(C  16,C  15)                1.3980 -0.000956  0.0004    1.3984   
    17. B(C  17,C  16)                1.3888 -0.000630 -0.0002    1.3886   
    18. B(C  18,C  17)                1.3904 -0.000349  0.0002    1.3907   
    19. B(C  19,C  18)                1.3904 -0.000356  0.0002    1.3907   
    20. B(C  20,C  19)                1.3888 -0.000643 -0.0002    1.3885   
    21. B(C  20,C  15)                1.3980 -0.000965  0.0004    1.3984   
    22. B(C  21,C  14)                1.3962 -0.000623  0.0004    1.3967   
    23. B(C  22,C  21)                1.3857 -0.001426 -0.0003    1.3854   
    24. B(C  22,C  11)                1.3970 -0.000394 -0.0000    1.3970   
    25. B(C  23,N  10)                1.4111 -0.000436  0.0044    1.4155   
    26. B(O  24,C  23)                1.2031 -0.001772 -0.0013    1.2018   
    27. B(C  25,C  23)                1.5212  0.000882 -0.0004    1.5208   
    28. B(C  25,C   7)                1.5491  0.001978 -0.0020    1.5470   
    29. B(C  26,C  25)                1.5542 -0.000759  0.0028    1.5570   
    30. B(C  27,C   5)                1.5366  0.001633 -0.0022    1.5344   
    31. B(C  27,C   1)                1.5238  0.000390  0.0012    1.5251   
    32. B(C  27,C  26)                1.5164  0.000599 -0.0007    1.5157   
    33. B(H  28,N   2)                1.0106  0.000113 -0.0000    1.0106   
    34. B(H  29,C   5)                1.0982 -0.000438  0.0009    1.0991   
    35. B(H  30,C   6)                1.0927 -0.000250  0.0000    1.0928   
    36. B(H  31,C   6)                1.0894 -0.000356  0.0001    1.0895   
    37. B(H  32,C   7)                1.0950 -0.000516  0.0007    1.0957   
    38. B(H  33,C  12)                1.0750 -0.001224  0.0012    1.0762   
    39. B(H  34,C  13)                1.0820 -0.000538  0.0006    1.0826   
    40. B(H  35,C  16)                1.0828 -0.000268  0.0001    1.0828   
    41. B(H  36,C  17)                1.0826 -0.000330  0.0003    1.0829   
    42. B(H  37,C  18)                1.0825 -0.000221  0.0001    1.0826   
    43. B(H  38,C  19)                1.0826 -0.000330  0.0003    1.0829   
    44. B(H  39,C  20)                1.0828 -0.000272  0.0001    1.0829   
    45. B(H  40,C  21)                1.0820 -0.000537  0.0006    1.0826   
    46. B(H  41,C  22)                1.0753 -0.001058  0.0009    1.0762   
    47. B(H  42,C  25)                1.0892 -0.000505  0.0003    1.0895   
    48. B(H  43,C  26)                1.0937 -0.000305  0.0002    1.0940   
    49. B(H  44,C  26)                1.0894 -0.000264 -0.0002    1.0892   
    50. B(H  45,C  27)                1.0990 -0.000354  0.0007    1.0997   
    51. A(O   0,C   1,N   2)          125.73  0.000498   -0.21    125.51   
    52. A(O   0,C   1,C  27)          129.12 -0.000786    0.41    129.53   
    53. A(N   2,C   1,C  27)          105.08  0.000274   -0.15    104.94   
    54. A(C   1,N   2,H  28)          122.73  0.000120   -0.16    122.57   
    55. A(C   1,N   2,C   3)          114.45 -0.000355    0.36    114.81   
    56. A(C   3,N   2,H  28)          122.80  0.000233   -0.19    122.62   
    57. A(N   2,C   3,C   5)          105.01  0.000328   -0.12    104.89   
    58. A(O   4,C   3,C   5)          129.39 -0.000878    0.40    129.79   
    59. A(N   2,C   3,O   4)          125.56  0.000538   -0.25    125.31   
    60. A(C   3,C   5,C  27)          102.78 -0.000375    0.51    103.29   
    61. A(C   3,C   5,H  29)          104.50  0.000517   -0.38    104.13   
    62. A(C   6,C   5,H  29)          108.58 -0.000187   -0.06    108.52   
    63. A(C  27,C   5,H  29)          107.82  0.000054   -0.44    107.37   
    64. A(C   3,C   5,C   6)          120.87 -0.000244    0.21    121.09   
    65. A(C   6,C   5,C  27)          111.47  0.000273    0.09    111.55   
    66. A(C   5,C   6,H  30)          109.68  0.000049    0.08    109.76   
    67. A(C   5,C   6,C   7)          109.04 -0.000464   -0.00    109.04   
    68. A(C   7,C   6,H  31)          109.75  0.000980   -0.48    109.28   
    69. A(C   5,C   6,H  31)          111.79 -0.000136    0.14    111.92   
    70. A(H  30,C   6,H  31)          107.24 -0.000469    0.27    107.50   
    71. A(C   7,C   6,H  30)          109.30  0.000050   -0.00    109.30   
    72. A(C   8,C   7,H  32)          104.75  0.000405   -0.34    104.41   
    73. A(C   6,C   7,H  32)          107.95 -0.000567    0.11    108.06   
    74. A(C   6,C   7,C   8)          114.39  0.000746   -0.16    114.24   
    75. A(C   8,C   7,C  25)          102.40 -0.000937    0.40    102.80   
    76. A(C   6,C   7,C  25)          118.80  0.000178    0.27    119.07   
    77. A(C  25,C   7,H  32)          107.52  0.000217   -0.38    107.14   
    78. A(O   9,C   8,N  10)          126.15 -0.000024   -0.40    125.75   
    79. A(C   7,C   8,O   9)          125.63 -0.000966    0.51    126.14   
    80. A(C   7,C   8,N  10)          108.21  0.000988   -0.11    108.09   
    81. A(C   8,N  10,C  23)          110.37 -0.000666    0.13    110.50   
    82. A(C   8,N  10,C  11)          124.71  0.000082   -0.03    124.68   
    83. A(C  11,N  10,C  23)          124.92  0.000583   -0.10    124.82   
    84. A(C  12,C  11,C  22)          118.61 -0.000982    0.40    119.01   
    85. A(N  10,C  11,C  22)          120.63  0.000228   -0.16    120.47   
    86. A(N  10,C  11,C  12)          120.76  0.000754   -0.25    120.51   
    87. A(C  13,C  12,H  33)          118.63 -0.001842    0.69    119.33   
    88. A(C  11,C  12,H  33)          121.07  0.001238   -0.41    120.66   
    89. A(C  11,C  12,C  13)          120.29  0.000605   -0.29    120.01   
    90. A(C  12,C  13,C  14)          121.78 -0.000078    0.08    121.86   
    91. A(C  14,C  13,H  34)          119.80  0.000400   -0.13    119.67   
    92. A(C  12,C  13,H  34)          118.40 -0.000322    0.05    118.46   
    93. A(C  15,C  14,C  21)          121.39  0.000063   -0.01    121.39   
    94. A(C  13,C  14,C  21)          117.23 -0.000094    0.01    117.24   
    95. A(C  13,C  14,C  15)          121.38  0.000031   -0.00    121.37   
    96. A(C  16,C  15,C  20)          118.30  0.000147    0.03    118.34   
    97. A(C  14,C  15,C  20)          120.82 -0.000104   -0.01    120.81   
    98. A(C  14,C  15,C  16)          120.87 -0.000044   -0.02    120.85   
    99. A(C  15,C  16,C  17)          120.89  0.000086   -0.04    120.85   
   100. A(C  17,C  16,H  35)          119.50 -0.000429    0.19    119.68   
   101. A(C  15,C  16,H  35)          119.61  0.000344   -0.15    119.46   
   102. A(C  16,C  17,C  18)          120.20 -0.000176    0.05    120.25   
   103. A(C  18,C  17,H  36)          120.10  0.000111   -0.01    120.09   
   104. A(C  16,C  17,H  36)          119.70  0.000065   -0.04    119.66   
   105. A(C  17,C  18,C  19)          119.53  0.000024   -0.05    119.48   
   106. A(C  19,C  18,H  37)          120.24 -0.000015    0.03    120.26   
   107. A(C  17,C  18,H  37)          120.24 -0.000009    0.02    120.26   
   108. A(C  18,C  19,C  20)          120.19 -0.000180    0.05    120.24   
   109. A(C  20,C  19,H  38)          119.70  0.000063   -0.04    119.66   
   110. A(C  18,C  19,H  38)          120.11  0.000118   -0.01    120.09   
   111. A(C  15,C  20,C  19)          120.89  0.000099   -0.04    120.85   
   112. A(C  19,C  20,H  39)          119.49 -0.000425    0.18    119.68   
   113. A(C  15,C  20,H  39)          119.61  0.000327   -0.14    119.46   
   114. A(C  14,C  21,C  22)          121.76 -0.000084    0.08    121.84   
   115. A(C  22,C  21,H  40)          118.43 -0.000335    0.06    118.49   
   116. A(C  14,C  21,H  40)          119.80  0.000420   -0.14    119.66   
   117. A(C  11,C  22,C  21)          120.32  0.000633   -0.29    120.03   
   118. A(C  21,C  22,H  41)          118.57 -0.001820    0.67    119.25   
   119. A(C  11,C  22,H  41)          121.10  0.001188   -0.39    120.71   
   120. A(O  24,C  23,C  25)          125.00 -0.001732    0.71    125.71   
   121. A(N  10,C  23,C  25)          108.57  0.000972   -0.17    108.40   
   122. A(N  10,C  23,O  24)          126.40  0.000762   -0.55    125.85   
   123. A(C  26,C  25,H  42)          109.17  0.000400   -0.32    108.85   
   124. A(C  23,C  25,H  42)          108.65  0.000152   -0.27    108.39   
   125. A(C   7,C  25,H  42)          111.89 -0.000408    0.45    112.34   
   126. A(C  23,C  25,C  26)          108.84  0.000004   -0.10    108.73   
   127. A(C   7,C  25,C  26)          115.28  0.000282   -0.05    115.24   
   128. A(C   7,C  25,C  23)          102.63 -0.000475    0.29    102.92   
   129. A(C  25,C  26,C  27)          108.51 -0.000368   -0.14    108.37   
   130. A(C  27,C  26,H  44)          112.21  0.000158    0.24    112.44   
   131. A(C  25,C  26,H  44)          109.25  0.000246   -0.06    109.18   
   132. A(C  27,C  26,H  43)          109.57  0.000112   -0.15    109.42   
   133. A(C  25,C  26,H  43)          110.86  0.000356   -0.24    110.62   
   134. A(H  43,C  26,H  44)          106.46 -0.000486    0.36    106.82   
   135. A(C   5,C  27,C  26)          111.27 -0.000032    0.04    111.31   
   136. A(C   1,C  27,C  26)          120.75 -0.000042    0.15    120.90   
   137. A(C  26,C  27,H  45)          108.53 -0.000514    0.05    108.58   
   138. A(C   1,C  27,C   5)          102.94 -0.000201    0.46    103.41   
   139. A(C   5,C  27,H  45)          107.83 -0.000119   -0.40    107.44   
   140. A(C   1,C  27,H  45)          104.72  0.000959   -0.37    104.35   
   141. D(C   3,N   2,C   1,C  27)      9.20  0.000188   -0.28      8.92   
   142. D(H  28,N   2,C   1,C  27)   -169.42  0.000277   -0.66   -170.08   
   143. D(C   3,N   2,C   1,O   0)   -173.60 -0.000118    0.27   -173.33   
   144. D(H  28,N   2,C   1,O   0)      7.78 -0.000028   -0.11      7.67   
   145. D(C   5,C   3,N   2,C   1)     10.96  0.000282   -0.77     10.19   
   146. D(O   4,C   3,N   2,H  28)      7.17 -0.000114    0.08      7.25   
   147. D(C   5,C   3,N   2,H  28)   -170.42  0.000191   -0.39   -170.81   
   148. D(O   4,C   3,N   2,C   1)   -171.45 -0.000022   -0.30   -171.75   
   149. D(C  27,C   5,C   3,O   4)    156.59 -0.000155    0.94    157.54   
   150. D(C   6,C   5,C   3,O   4)     31.65 -0.000023    0.26     31.91   
   151. D(C  27,C   5,C   3,N   2)    -25.94 -0.000427    1.38    -24.57   
   152. D(H  29,C   5,C   3,N   2)     86.56 -0.000326    0.96     87.52   
   153. D(C   6,C   5,C   3,N   2)   -150.89 -0.000295    0.69   -150.19   
   154. D(C   7,C   6,C   5,C  27)     54.00 -0.000066   -0.44     53.56   
   155. D(C   7,C   6,C   5,H  29)    -64.62 -0.000178    0.10    -64.52   
   156. D(C   7,C   6,C   5,C   3)    174.79 -0.000543    0.51    175.31   
   157. D(H  30,C   6,C   5,H  29)    175.72  0.000014    0.05    175.77   
   158. D(H  30,C   6,C   5,C   3)     55.14 -0.000352    0.47     55.60   
   159. D(H  30,C   6,C   5,C  27)    -65.66  0.000125   -0.49    -66.15   
   160. D(C  25,C   7,C   6,H  30)     79.94 -0.000102    0.75     80.68   
   161. D(C  25,C   7,C   6,C   5)    -39.95  0.000087    0.65    -39.31   
   162. D(C   8,C   7,C   6,H  31)    -41.51 -0.000574    1.46    -40.05   
   163. D(C   8,C   7,C   6,C   5)     81.26 -0.000415    1.31     82.57   
   164. D(C  25,C   7,C   6,H  31)   -162.72 -0.000072    0.79   -161.93   
   165. D(C   8,C   7,C   6,H  30)   -158.85 -0.000604    1.41   -157.44   
   166. D(N  10,C   8,C   7,C  25)    -23.91 -0.000263    1.00    -22.91   
   167. D(O   9,C   8,C   7,H  32)    -90.83 -0.000145    0.69    -90.14   
   168. D(O   9,C   8,C   7,C   6)     27.16 -0.000171    0.52     27.68   
   169. D(O   9,C   8,C   7,C  25)    157.05 -0.000172    1.07    158.12   
   170. D(N  10,C   8,C   7,C   6)   -153.79 -0.000263    0.45   -153.34   
   171. D(C  11,N  10,C   8,C   7)   -170.37  0.000242   -0.51   -170.88   
   172. D(C  23,N  10,C   8,O   9)   -170.46  0.000181   -0.84   -171.29   
   173. D(C  23,N  10,C   8,C   7)     10.50  0.000284   -0.78      9.72   
   174. D(C  11,N  10,C   8,O   9)      8.67  0.000139   -0.57      8.10   
   175. D(C  22,C  11,N  10,C  23)   -162.80 -0.001768    7.03   -155.77   
   176. D(C  22,C  11,N  10,C   8)     18.20 -0.001708    6.72     24.92   
   177. D(C  12,C  11,N  10,C  23)     17.07 -0.001760    7.01     24.08   
   178. D(C  12,C  11,N  10,C   8)   -161.94 -0.001700    6.70   -155.23   
   179. D(H  33,C  12,C  11,C  22)    178.80  0.000066   -0.37    178.44   
   180. D(H  33,C  12,C  11,N  10)     -1.07  0.000057   -0.35     -1.42   
   181. D(C  13,C  12,C  11,C  22)     -0.19 -0.000004    0.01     -0.18   
   182. D(C  13,C  12,C  11,N  10)    179.94 -0.000014    0.02    179.97   
   183. D(H  34,C  13,C  12,H  33)     -0.06 -0.000041    0.19      0.14   
   184. D(C  14,C  13,C  12,H  33)   -178.84 -0.000100    0.39   -178.45   
   185. D(C  14,C  13,C  12,C  11)      0.17 -0.000001    0.03      0.20   
   186. D(H  34,C  13,C  12,C  11)    178.96  0.000058   -0.17    178.79   
   187. D(C  21,C  14,C  13,H  34)   -178.76 -0.000041    0.16   -178.60   
   188. D(C  21,C  14,C  13,C  12)      0.01  0.000010   -0.04     -0.03   
   189. D(C  15,C  14,C  13,H  34)      1.27 -0.000034    0.14      1.41   
   190. D(C  15,C  14,C  13,C  12)   -179.96  0.000017   -0.05   -180.02   
   191. D(C  20,C  15,C  14,C  21)   -134.17  0.000787   -3.91   -138.08   
   192. D(C  20,C  15,C  14,C  13)     45.80  0.000779   -3.90     41.91   
   193. D(C  16,C  15,C  14,C  21)     45.82  0.000785   -3.91     41.91   
   194. D(C  16,C  15,C  14,C  13)   -134.21  0.000778   -3.89   -138.10   
   195. D(H  35,C  16,C  15,C  20)   -178.97 -0.000054    0.18   -178.79   
   196. D(H  35,C  16,C  15,C  14)      1.04 -0.000053    0.18      1.22   
   197. D(C  17,C  16,C  15,C  20)     -0.06 -0.000001   -0.00     -0.06   
   198. D(C  17,C  16,C  15,C  14)    179.95  0.000001   -0.00    179.94   
   199. D(C  18,C  17,C  16,C  15)      0.13  0.000002   -0.00      0.12   
   200. D(C  18,C  17,C  16,H  35)    179.04  0.000064   -0.19    178.85   
   201. D(H  36,C  17,C  16,H  35)     -0.58  0.000043   -0.11     -0.69   
   202. D(H  36,C  17,C  16,C  15)   -179.49 -0.000019    0.07   -179.41   
   203. D(C  19,C  18,C  17,C  16)     -0.06 -0.000001    0.00     -0.06   
   204. D(H  37,C  18,C  17,H  36)     -0.45  0.000020   -0.07     -0.53   
   205. D(H  37,C  18,C  17,C  16)    179.94 -0.000001    0.00    179.94   
   206. D(C  19,C  18,C  17,H  36)    179.55  0.000019   -0.07    179.48   
   207. D(H  38,C  19,C  18,H  37)     -0.46  0.000020   -0.07     -0.53   
   208. D(H  38,C  19,C  18,C  17)    179.54  0.000021   -0.08    179.47   
   209. D(C  20,C  19,C  18,H  37)    179.94 -0.000001    0.00    179.94   
   210. D(C  20,C  19,C  18,C  17)     -0.06  0.000000   -0.00     -0.07   
   211. D(H  39,C  20,C  19,H  38)     -0.57  0.000041   -0.11     -0.68   
   212. D(H  39,C  20,C  19,C  18)    179.04  0.000062   -0.18    178.85   
   213. D(C  15,C  20,C  19,H  38)   -179.48 -0.000019    0.07   -179.41   
   214. D(C  15,C  20,C  19,C  18)      0.13  0.000001   -0.00      0.13   
   215. D(H  39,C  20,C  15,C  16)   -178.97 -0.000054    0.18   -178.79   
   216. D(H  39,C  20,C  15,C  14)      1.02 -0.000055    0.19      1.21   
   217. D(C  19,C  20,C  15,C  16)     -0.06 -0.000001    0.00     -0.06   
   218. D(C  19,C  20,C  15,C  14)    179.93 -0.000003    0.00    179.93   
   219. D(H  40,C  21,C  14,C  15)      1.06 -0.000051    0.17      1.23   
   220. D(H  40,C  21,C  14,C  13)   -178.91 -0.000044    0.16   -178.76   
   221. D(C  22,C  21,C  14,C  15)    179.79 -0.000018    0.03    179.83   
   222. D(C  22,C  21,C  14,C  13)     -0.17 -0.000011    0.01     -0.16   
   223. D(H  41,C  22,C  21,H  40)     -0.03 -0.000024    0.16      0.13   
   224. D(H  41,C  22,C  21,C  14)   -178.78 -0.000065    0.30   -178.48   
   225. D(C  11,C  22,C  21,H  40)    178.92  0.000047   -0.13    178.79   
   226. D(C  11,C  22,C  21,C  14)      0.16  0.000005    0.02      0.18   
   227. D(H  41,C  22,C  11,C  12)    178.94  0.000042   -0.32    178.62   
   228. D(H  41,C  22,C  11,N  10)     -1.19  0.000052   -0.34     -1.53   
   229. D(C  21,C  22,C  11,C  12)      0.02  0.000002   -0.03     -0.00   
   230. D(C  21,C  22,C  11,N  10)    179.89  0.000012   -0.04    179.85   
   231. D(C  25,C  23,N  10,C  11)   -171.07  0.000150   -0.13   -171.20   
   232. D(C  25,C  23,N  10,C   8)      8.06  0.000102    0.14      8.20   
   233. D(O  24,C  23,N  10,C  11)      7.24  0.000186   -0.80      6.44   
   234. D(O  24,C  23,N  10,C   8)   -173.63  0.000138   -0.53   -174.17   
   235. D(H  42,C  25,C  23,N  10)   -141.17  0.000383   -0.06   -141.22   
   236. D(C  26,C  25,C  23,O  24)    -78.28 -0.000275    1.16    -77.12   
   237. D(C   7,C  25,C  23,O  24)    159.11 -0.000344    1.11    160.22   
   238. D(C   7,C  25,C  23,N  10)    -22.55 -0.000257    0.49    -22.06   
   239. D(C  26,C  25,C   7,H  32)    158.93 -0.000110   -0.44    158.49   
   240. D(C  26,C  25,C   7,C   8)    -91.03  0.000024   -0.77    -91.80   
   241. D(C  26,C  25,C   7,C   6)     36.08  0.000341   -0.46     35.62   
   242. D(C  26,C  25,C  23,N  10)    100.06 -0.000188    0.54    100.60   
   243. D(C  23,C  25,C   7,H  32)    -82.92 -0.000274   -0.40    -83.32   
   244. D(C  23,C  25,C   7,C   8)     27.13 -0.000140   -0.73     26.40   
   245. D(C  23,C  25,C   7,C   6)    154.24  0.000177   -0.42    153.81   
   246. D(H  43,C  26,C  25,H  42)   -155.95 -0.000039   -0.03   -155.99   
   247. D(H  43,C  26,C  25,C  23)    -37.51  0.000377   -0.61    -38.11   
   248. D(H  43,C  26,C  25,C   7)     77.12 -0.000049   -0.34     76.78   
   249. D(C  27,C  26,C  25,H  42)     83.68 -0.000160    0.40     84.08   
   250. D(C  27,C  26,C  25,C  23)   -157.87  0.000257   -0.18   -158.05   
   251. D(C  27,C  26,C  25,C   7)    -43.24 -0.000169    0.09    -43.15   
   252. D(C   5,C  27,C  26,C  25)     58.83 -0.000029    0.26     59.08   
   253. D(C   1,C  27,C  26,H  44)    -59.62 -0.000218    1.04    -58.58   
   254. D(C   1,C  27,C  26,H  43)     58.41 -0.000653    1.53     59.95   
   255. D(C  26,C  27,C   5,H  29)     51.45 -0.000226   -0.46     50.99   
   256. D(C  26,C  27,C   5,C   6)    -67.63 -0.000191   -0.15    -67.77   
   257. D(C  26,C  27,C   5,C   3)    161.49  0.000208   -0.81    160.68   
   258. D(C   1,C  27,C   5,H  29)    -79.28 -0.000010   -0.99    -80.27   
   259. D(C   1,C  27,C   5,C   6)    161.65  0.000026   -0.68    160.97   
   260. D(C   1,C  27,C   5,C   3)     30.76  0.000424   -1.34     29.42   
   261. D(H  45,C  27,C   1,O   0)    -89.40 -0.000003    0.21    -89.20   
   262. D(C   1,C  27,C  26,C  25)    179.58 -0.000378    1.06    180.64   
   263. D(C  26,C  27,C   1,N   2)   -149.73 -0.000158    0.57   -149.17   
   264. D(C  26,C  27,C   1,O   0)     33.20  0.000110    0.05     33.25   
   265. D(C   5,C  27,C   1,N   2)    -24.99 -0.000409    1.11    -23.88   
   266. D(C   5,C  27,C  26,H  43)    -62.34 -0.000304    0.73    -61.61   
   267. D(C   5,C  27,C   1,O   0)    157.94 -0.000141    0.59    158.53   
   268. D(C   5,C  27,C  26,H  44)    179.63  0.000130    0.24    179.87   
    ----------------------------------------------------------------------------

Geometry step timings:
Preparation and reading OPT file:      0.000 s ( 0.126 %)
Internal coordinates            :      0.000 s ( 0.228 %)
B/P matrices and projection     :      0.008 s (37.846 %)
Hessian update/contruction      :      0.002 s ( 7.962 %)
Making the step                 :      0.009 s (45.609 %)
Converting the step to Cartesian:      0.001 s ( 2.787 %)
Storing new data                :      0.000 s ( 0.214 %)
Checking convergence            :      0.000 s ( 0.384 %)
Final printing                  :      0.001 s ( 4.840 %)
Total time                      :      0.021 s

Time for energy+gradient        :     89.059 s
Time for complete geometry iter :     89.286 s

         *************************************************************
         *                GEOMETRY OPTIMIZATION CYCLE   4            *
         *************************************************************
---------------------------------
CARTESIAN COORDINATES (ANGSTROEM)
---------------------------------
  O     -5.735597   -2.977916    0.269913
  C     -5.592810   -1.798445    0.093258
  N     -6.333966   -1.014490   -0.797572
  C     -5.884784    0.306778   -0.932335
  O     -6.456178    1.176266   -1.531207
  C     -4.542123    0.338367   -0.212324
  C     -4.040530    1.604705    0.454337
  C     -2.727141    1.297154    1.191202
  C     -1.488620    1.317048    0.298942
  O     -1.350095    1.959127   -0.707462
  N     -0.517863    0.463868    0.875898
  C      0.845765    0.360945    0.434829
  C      1.581367   -0.802916    0.670301
  C      2.895489   -0.891192    0.239800
  C      3.524182    0.160893   -0.429291
  C      4.931915    0.054771   -0.885169
  C      5.816230    1.128039   -0.738017
  C      7.134142    1.028148   -1.163702
  C      7.594389   -0.146888   -1.747973
  C      6.724767   -1.221198   -1.901359
  C      5.407690   -1.121482   -1.473117
  C      2.772742    1.316986   -0.651771
  C      1.456451    1.425002   -0.233279
  C     -1.082488   -0.282429    1.937958
  O     -0.484074   -1.014177    2.680117
  C     -2.584826   -0.046378    1.944671
  C     -3.285322   -1.262611    1.270759
  C     -4.652269   -0.819686    0.788287
  H     -7.140091   -1.369036   -1.293312
  H     -3.817525    0.038833   -0.982583
  H     -4.782249    1.962892    1.172486
  H     -3.869850    2.403627   -0.266558
  H     -2.551231    2.096310    1.919896
  H      1.145100   -1.629110    1.204405
  H      3.448421   -1.797137    0.453143
  H      5.472473    2.040605   -0.267275
  H      7.805081    1.867872   -1.031709
  H      8.621594   -0.224663   -2.080850
  H      7.070314   -2.137871   -2.362894
  H      4.733405   -1.956992   -1.613975
  H      3.215044    2.149009   -1.184757
  H      0.908544    2.325932   -0.448490
  H     -2.917162    0.022052    2.980001
  H     -2.698628   -1.622455    0.420436
  H     -3.342141   -2.083461    1.984441
  H     -5.227543   -0.455614    1.651901

----------------------------
CARTESIAN COORDINATES (A.U.)
----------------------------
  NO LB      ZA    FRAG     MASS         X           Y           Z
   0 O     8.0000    0    15.999  -10.838708   -5.627445    0.510061
   1 C     6.0000    0    12.011  -10.568879   -3.398568    0.176232
   2 N     7.0000    0    14.007  -11.969460   -1.917109   -1.507192
   3 C     6.0000    0    12.011  -11.120629    0.579726   -1.761858
   4 O     8.0000    0    15.999  -12.200408    2.222821   -2.893563
   5 C     6.0000    0    12.011   -8.583368    0.639420   -0.401233
   6 C     6.0000    0    12.011   -7.635496    3.032453    0.858572
   7 C     6.0000    0    12.011   -5.153550    2.451266    2.251046
   8 C     6.0000    0    12.011   -2.813083    2.488860    0.564919
   9 O     8.0000    0    15.999   -2.551310    3.702214   -1.336909
  10 N     7.0000    0    14.007   -0.978620    0.876584    1.655208
  11 C     6.0000    0    12.011    1.598264    0.682088    0.821708
  12 C     6.0000    0    12.011    2.988350   -1.517291    1.266685
  13 C     6.0000    0    12.011    5.471681   -1.684109    0.453156
  14 C     6.0000    0    12.011    6.659739    0.304044   -0.811242
  15 C     6.0000    0    12.011    9.319969    0.103502   -1.672728
  16 C     6.0000    0    12.011   10.991082    2.131685   -1.394650
  17 C     6.0000    0    12.011   13.481575    1.942917   -2.199079
  18 C     6.0000    0    12.011   14.351316   -0.277578   -3.303191
  19 C     6.0000    0    12.011   12.707969   -2.307729   -3.593047
  20 C     6.0000    0    12.011   10.219054   -2.119294   -2.783788
  21 C     6.0000    0    12.011    5.239723    2.488742   -1.231668
  22 C     6.0000    0    12.011    2.752294    2.692863   -0.440833
  23 C     6.0000    0    12.011   -2.045606   -0.533713    3.662210
  24 O     8.0000    0    15.999   -0.914767   -1.916516    5.064686
  25 C     6.0000    0    12.011   -4.884612   -0.087641    3.674895
  26 C     6.0000    0    12.011   -6.208359   -2.385989    2.401386
  27 C     6.0000    0    12.011   -8.791515   -1.548981    1.489646
  28 H     1.0000    0     1.008  -13.492816   -2.587102   -2.444006
  29 H     1.0000    0     1.008   -7.214077    0.073383   -1.856813
  30 H     1.0000    0     1.008   -9.037141    3.709329    2.215678
  31 H     1.0000    0     1.008   -7.312957    4.542197   -0.503721
  32 H     1.0000    0     1.008   -4.821129    3.961452    3.628077
  33 H     1.0000    0     1.008    2.163926   -3.078573    2.275995
  34 H     1.0000    0     1.008    6.516571   -3.396098    0.856317
  35 H     1.0000    0     1.008   10.341475    3.856185   -0.505077
  36 H     1.0000    0     1.008   14.749466    3.529767   -1.949647
  37 H     1.0000    0     1.008   16.292452   -0.424552   -3.932236
  38 H     1.0000    0     1.008   13.360958   -4.039992   -4.465222
  39 H     1.0000    0     1.008    8.944840   -3.698179   -3.049971
  40 H     1.0000    0     1.008    6.075552    4.061038   -2.238866
  41 H     1.0000    0     1.008    1.716899    4.395375   -0.847524
  42 H     1.0000    0     1.008   -5.512637    0.041672    5.631386
  43 H     1.0000    0     1.008   -5.099667   -3.065996    0.794509
  44 H     1.0000    0     1.008   -6.315731   -3.937171    3.750050
  45 H     1.0000    0     1.008   -9.878625   -0.860985    3.121641

--------------------------------
INTERNAL COORDINATES (ANGSTROEM)
--------------------------------
 O      0   0   0     0.000000000000     0.00000000     0.00000000
 C      1   0   0     1.201143892243     0.00000000     0.00000000
 N      2   1   0     1.399097415990   125.51305340     0.00000000
 C      3   2   1     1.402025457486   114.80537911   186.64946631
 O      4   3   2     1.200478550291   125.31167425   188.22711607
 C      4   3   2     1.523861047718   104.85678444    10.19199909
 C      6   4   3     1.516457632471   121.09513450   209.79723285
 C      7   6   4     1.537058442019   109.04420737   175.30074129
 C      8   7   6     1.526584372129   114.23221589    82.55846496
 O      9   8   7     1.201791896862   126.15226032    27.68710342
 N      9   8   7     1.415330921885   108.07993333   206.65393552
 C     11   9   8     1.436877584736   124.67827154   189.13085868
 C     12  11   9     1.396828223145   120.51160487   204.76561144
 C     13  12  11     1.385655474234   120.00956341   179.96723088
 C     14  13  12     1.396359817576   121.86122272     0.19896250
 C     15  14  13     1.483509224640   121.37176632   179.98426451
 C     16  15  14     1.398417639112   120.85248569   221.89842021
 C     17  16  15     1.388552475249   120.84555357   179.94321366
 C     18  17  16     1.390650571022   120.24566505     0.12379970
 C     19  18  17     1.390650990730   119.48049004   359.94178957
 C     20  19  18     1.388533688711   120.24237004   359.93475677
 C     15  14  13     1.396678082348   117.24227589   359.97031609
 C     22  15  14     1.385432678882   121.84262151   359.84139589
 C     11   9   8     1.415532315283   110.49244663     9.73003134
 O     24  11   9     1.201812560340   125.85426987   185.86999834
 C     24  11   9     1.520783971279   108.39209395     8.19570968
 C     26  24  11     1.556944505789   108.74152936   100.59194462
 C     27  26  24     1.515752500269   108.37623887   201.94894813
 H      3   2   1     1.010593357426   122.56917572     7.64510835
 H      6   4   3     1.099118972047   104.12820507    87.50295098
 H      7   6   4     1.092786928690   109.76189360    55.59517798
 H      7   6   4     1.089540328708   111.91718759   296.31533906
 H      8   7   6     1.095713634641   108.06322572   198.27697525
 H     13  12  11     1.076193814928   120.65331733   358.59149458
 H     14  13  12     1.082582997034   118.45521962   178.78754776
 H     17  16  15     1.082840295506   119.45871990     1.21655126
 H     18  17  16     1.082921590107   119.66279492   180.58716260
 H     19  18  17     1.082592105523   120.25931665   179.93813660
 H     20  19  18     1.082916604157   120.09271289   179.46488468
 H     21  20  19     1.082856477050   119.67753613   178.85061583
 H     22  15  14     1.082574589893   119.65522137   181.24517877
 H     23  22  15     1.076194102233   119.24666803   181.52695363
 H     26  24  11     1.089512986379   108.37743865   218.77499386
 H     27  26  24     1.093959329633   110.61622789   321.89280673
 H     27  26  24     1.089204243524   109.18158836    79.16590429
 H     28  27  26     1.099690039311   108.57449621   301.02116022

---------------------------
INTERNAL COORDINATES (A.U.)
---------------------------
 O      0   0   0     0.000000000000     0.00000000     0.00000000
 C      1   0   0     2.269833003772     0.00000000     0.00000000
 N      2   1   0     2.643910950899   125.51305340     0.00000000
 C      3   2   1     2.649444147434   114.80537911   186.64946631
 O      4   3   2     2.268575689697   125.31167425   188.22711607
 C      4   3   2     2.879680046338   104.85678444    10.19199909
 C      6   4   3     2.865689619064   121.09513450   209.79723285
 C      7   6   4     2.904619507247   109.04420737   175.30074129
 C      8   7   6     2.884826383648   114.23221589    82.55846496
 O      9   8   7     2.271057555036   126.15226032    27.68710342
 N      9   8   7     2.674587831232   108.07993333   206.65393552
 C     11   9   8     2.715305123121   124.67827154   189.13085868
 C     12  11   9     2.639622797876   120.51160487   204.76561144
 C     13  12  11     2.618509362272   120.00956341   179.96723088
 C     14  13  12     2.638737639630   121.86122272     0.19896250
 C     15  14  13     2.803426151715   121.37176632   179.98426451
 C     16  15  14     2.642626358767   120.85248569   221.89842021
 C     17  16  15     2.623983900800   120.84555357   179.94321366
 C     18  17  16     2.627948727212   120.24566505     0.12379970
 C     19  18  17     2.627949520347   119.48049004   359.94178957
 C     20  19  18     2.623948399388   120.24237004   359.93475677
 C     15  14  13     2.639339072889   117.24227589   359.97031609
 C     22  15  14     2.618088340072   121.84262151   359.84139589
 C     11   9   8     2.674968409600   110.49244663     9.73003134
 O     24  11   9     2.271096603350   125.85426987   185.86999834
 C     24  11   9     2.873865214575   108.39209395     8.19570968
 C     26  24  11     2.942198721655   108.74152936   100.59194462
 C     27  26  24     2.864357112315   108.37623887   201.94894813
 H      3   2   1     1.909744678296   122.56917572     7.64510835
 H      6   4   3     2.077033845766   104.12820507    87.50295098
 H      7   6   4     2.065068017953   109.76189360    55.59517798
 H      7   6   4     2.058932833121   111.91718759   296.31533906
 H      8   7   6     2.070598690675   108.06322572   198.27697525
 H     13  12  11     2.033711577234   120.65331733   358.59149458
 H     14  13  12     2.045785381635   118.45521962   178.78754776
 H     17  16  15     2.046271605281   119.45871990     1.21655126
 H     18  17  16     2.046425229813   119.66279492   180.58716260
 H     19  18  17     2.045802594184   120.25931665   179.93813660
 H     20  19  18     2.046415807733   120.09271289   179.46488468
 H     21  20  19     2.046302183968   119.67753613   178.85061583
 H     22  15  14     2.045769494439   119.65522137   181.24517877
 H     23  22  15     2.033712120161   119.24666803   181.52695363
 H     26  24  11     2.058881163607   108.37743865   218.77499386
 H     27  26  24     2.067283534655   110.61622789   321.89280673
 H     27  26  24     2.058297724166   109.18158836    79.16590429
 H     28  27  26     2.078113006499   108.57449621   301.02116022



           ************************************************************
           *        Program running with 16 parallel MPI-processes    *
           *              working on a common directory               *
           ************************************************************
------------------------------------------------------------------------------
                   ___                                                        
                  /   \      - P O W E R E D   B Y -                         
                 /     \                                                     
                 |  |  |   _    _      __       _____    __    __             
                 |  |  |  | |  | |    /  \     |  _  \  |  |  /  |          
                  \  \/   | |  | |   /    \    | | | |  |  | /  /          
                 / \  \   | |__| |  /  /\  \   | |_| |  |  |/  /          
                |  |  |   |  __  | /  /__\  \  |    /   |      \           
                |  |  |   | |  | | |   __   |  |    \   |  |\   \          
                \     /   | |  | | |  |  |  |  | |\  \  |  | \   \       
                 \___/    |_|  |_| |__|  |__|  |_| \__\ |__|  \__/        
                                                                              
                      - O R C A' S   B I G   F R I E N D -                    
                                      &                                       
                       - I N T E G R A L  F E E D E R -                       
                                                                              
 v1 FN, 2020, v2 2021, v3 2022-2024                                           
------------------------------------------------------------------------------


----------------------
SHARK INTEGRAL PACKAGE
----------------------

Number of atoms                             ...     46
Number of basis functions                   ...    976
Number of shells                            ...    380
Maximum angular momentum                    ...      3
Integral batch strategy                     ... SHARK/LIBINT Hybrid
RI-J (if used) integral strategy            ... SPLIT-RIJ (Revised 2003 algorithm where possible)
Printlevel                                  ...      1
Contraction scheme used                     ... SEGMENTED contraction
Prescreening option                         ... SCHWARTZ
   Thresh                                   ... 2.500e-11
   Tcut                                     ... 2.500e-12
   Tpresel                                  ... 2.500e-12 
Coulomb Range Separation                    ... NOT USED
Exchange Range Separation                   ... NOT USED
Multipole approximations                    ... NOT USED
Finite Nucleus Model                        ... NOT USED
CABS basis                                  ... NOT available
Auxiliary Coulomb fitting basis             ... AVAILABLE
   # of basis functions in Aux-J            ...   1570
   # of shells in Aux-J                     ...    510
   Maximum angular momentum in Aux-J        ...      4
Auxiliary J/K fitting basis                 ... NOT available
Auxiliary Correlation fitting basis         ... NOT available
Auxiliary 'external' fitting basis          ... NOT available

Checking pre-screening integrals            ... done (  0.0 sec) Dimension = 380
   => SHARK Basis and OBASIS are compatible. Storing Pre-screening
Shell pair information
Shell pair cut-off parameter TPreSel        ...   2.5e-12
Total number of shell pairs                 ...     72390
Shell pairs after pre-screening             ...     42337
Total number of primitive shell pairs       ...    224116
Primitive shell pairs kept                  ...     86536
          la=0 lb=0:  10615 shell pairs
          la=1 lb=0:  12262 shell pairs
          la=1 lb=1:   3558 shell pairs
          la=2 lb=0:   6012 shell pairs
          la=2 lb=1:   3513 shell pairs
          la=2 lb=2:    872 shell pairs
          la=3 lb=0:   2834 shell pairs
          la=3 lb=1:   1680 shell pairs
          la=3 lb=2:    794 shell pairs
          la=3 lb=3:    197 shell pairs

Checking whether 4 symmetric matrices of dimension 976 fit in memory
:Max Core in MB      =   4096.00
 MB in use           =     62.15
 MB left             =   4033.85
 MB needed           =     14.55
 Data fit in memory  = YES
Calculating RI/J V-Matrix + Cholesky decomp.... done (  0.1 sec)
Calculating Nuclear repulsion               ... done (  0.0 sec) ENN=   2402.632768691962 Eh

Diagonalization of the overlap matrix:
Smallest eigenvalue                        ... 6.575e-06
Time for diagonalization                   ...    0.151 sec
Threshold for overlap eigenvalues          ... 1.000e-07
Number of eigenvalues below threshold      ... 0
Time for construction of square roots      ...    0.066 sec
Total time needed                          ...    0.223 sec

-------------------
DFT GRID GENERATION
-------------------

General Integration Accuracy     IntAcc      ... 4.388
Radial Grid Type                 RadialGrid  ... OptM3 with GC (2021)
Angular Grid (max. ang.)         AngularGrid ... 4 (Lebedev-302)
Angular grid pruning method      GridPruning ... 4 (adaptive)
Weight generation scheme         WeightScheme... mBecke (2022)
Basis function cutoff            BFCut       ... 1.0000e-11
Integration weight cutoff        WCut        ... 1.0000e-14
Partially contracted basis set               ... off
Rotationally invariant grid construction     ... off
Angular grids for H and He will be reduced by one unit

Total number of grid points                  ...   224175
Total number of batches                      ...     3528
Average number of points per batch           ...       63
Average number of grid points per atom       ...     4873

--------------------
COSX GRID GENERATION
--------------------

GRIDX 1
-------
General Integration Accuracy     IntAcc      ... 3.816
Radial Grid Type                 RadialGrid  ... OptM3 with GC (2021)
Angular Grid (max. ang.)         AngularGrid ... 1 (Lebedev-50)
Angular grid pruning method      GridPruning ... 4 (adaptive)
Weight generation scheme         WeightScheme... mBecke (2022)
Basis function cutoff            BFCut       ... 1.0000e-11
Integration weight cutoff        WCut        ... 1.0000e-14
Partially contracted basis set               ... on
Rotationally invariant grid construction     ... off
Angular grids for H and He will be reduced by one unit

Total number of grid points                  ...    28410
Total number of batches                      ...      249
Average number of points per batch           ...      114
Average number of grid points per atom       ...      618
UseSFitting                                  ... on

GRIDX 2
-------
General Integration Accuracy     IntAcc      ... 4.020
Radial Grid Type                 RadialGrid  ... OptM3 with GC (2021)
Angular Grid (max. ang.)         AngularGrid ... 2 (Lebedev-110)
Angular grid pruning method      GridPruning ... 4 (adaptive)
Weight generation scheme         WeightScheme... mBecke (2022)
Basis function cutoff            BFCut       ... 1.0000e-11
Integration weight cutoff        WCut        ... 1.0000e-14
Partially contracted basis set               ... on
Rotationally invariant grid construction     ... off
Angular grids for H and He will be reduced by one unit

Total number of grid points                  ...    62300
Total number of batches                      ...      507
Average number of points per batch           ...      122
Average number of grid points per atom       ...     1354
UseSFitting                                  ... on

GRIDX 3
-------
General Integration Accuracy     IntAcc      ... 4.338
Radial Grid Type                 RadialGrid  ... OptM3 with GC (2021)
Angular Grid (max. ang.)         AngularGrid ... 3 (Lebedev-194)
Angular grid pruning method      GridPruning ... 4 (adaptive)
Weight generation scheme         WeightScheme... mBecke (2022)
Basis function cutoff            BFCut       ... 1.0000e-11
Integration weight cutoff        WCut        ... 1.0000e-14
Partially contracted basis set               ... on
Rotationally invariant grid construction     ... off
Angular grids for H and He will be reduced by one unit

Total number of grid points                  ...   136247
Total number of batches                      ...     1087
Average number of points per batch           ...      125
Average number of grid points per atom       ...     2962
UseSFitting                                  ... on
Grids setup in   1.9 sec
Initializing property integral containers    ... done (  0.0 sec)

SHARK setup successfully completed in   2.6 seconds

Maximum memory used throughout the entire STARTUP-calculation: 103.8 MB


           ************************************************************
           *        Program running with 16 parallel MPI-processes    *
           *              working on a common directory               *
           ************************************************************
Occupation numbers will be reassigned to an Aufbau configuration
             **** ENERGY FILE WAS UPDATED (conjugate_row2_A2_H4.en.tmp) ****
Finished Guess after   0.7 sec
Maximum memory used throughout the entire GUESS-calculation: 98.9 MB


           ************************************************************
           *        Program running with 16 parallel MPI-processes    *
           *              working on a common directory               *
           ************************************************************
----------------------------------------D-I-I-S--------------------------------------------
Iteration    Energy (Eh)           Delta-E    RMSDP     MaxDP     DIISErr   Damp  Time(sec)
-------------------------------------------------------------------------------------------
               ***  Starting incremental Fock matrix formation  ***
    1    -1259.3783961621852541     0.00e+00  4.65e-04  6.97e-03  4.83e-02  0.700   6.7
    2    -1259.3852161204113145    -6.82e-03  4.20e-04  6.68e-03  3.83e-02  0.700   3.4
                               ***Turning on AO-DIIS***
    3    -1259.3906800825220671    -5.46e-03  3.37e-04  5.32e-03  2.89e-02  0.700   3.1
    4    -1259.3947438551799678    -4.06e-03  8.44e-04  1.31e-02  2.11e-02  0.000   3.0
                              *** Initializing SOSCF ***
---------------------------------------S-O-S-C-F--------------------------------------
Iteration    Energy (Eh)           Delta-E    RMSDP     MaxDP     MaxGrad    Time(sec)
--------------------------------------------------------------------------------------
    5    -1259.4049984058615337    -1.03e-02  5.98e-05  9.27e-04  1.21e-03     3.6
               *** Restarting incremental Fock matrix formation ***
    6    -1259.4050318003669418    -3.34e-05  6.48e-05  2.72e-03  2.11e-04     6.5
    7    -1259.4050357714490929    -3.97e-06  4.84e-05  2.73e-03  3.27e-04     4.3
    8    -1259.4050380365652018    -2.27e-06  2.89e-05  7.00e-04  1.58e-04     4.1
    9    -1259.4050398883855451    -1.85e-06  9.92e-06  4.34e-04  3.57e-05     3.9
   10    -1259.4050397706450894     1.18e-07  7.13e-06  4.18e-04  7.42e-05     3.2
   11    -1259.4050399592815666    -1.89e-07  3.98e-06  1.17e-04  1.11e-05     3.1
   12    -1259.4050399540833496     5.20e-09  2.73e-06  8.75e-05  1.70e-05     2.8
                 **** Energy Check signals convergence ****

               *****************************************************
               *                     SUCCESS                       *
               *           SCF CONVERGED AFTER  12 CYCLES          *
               *****************************************************

Recomputing exchange energy using gridx3       ... done (   10.790 sec)
Old exchange energy                            :    -33.371298198 Eh
New exchange energy                            :    -33.371293284 Eh
Exchange energy change after final integration :      0.000004913 Eh
Total energy after final integration           :  -1259.405035106 Eh
             **** ENERGY FILE WAS UPDATED (conjugate_row2_A2_H4.en.tmp) ****

----------------
TOTAL SCF ENERGY
----------------

Total Energy       :      -1259.40503510604731 Eh          -34270.15327 eV

Components:
Nuclear Repulsion  :       2402.63276869196216 Eh           65378.96144 eV
Electronic Energy  :      -3662.03780871131266 Eh          -99649.11484 eV
One Electron Energy:      -6486.79368784554936 Eh         -176514.63008 eV
Two Electron Energy:       2824.75587913423669 Eh           76865.51524 eV

Virial components:
Potential Energy   :      -2513.37776797613969 Eh          -68392.48607 eV
Kinetic Energy     :       1253.97273287009239 Eh           34122.33281 eV
Virial Ratio       :          2.00433207365165

DFT components:
N(Alpha)           :       97.999894613357 electrons
N(Beta)            :       97.999894613357 electrons
N(Total)           :      195.999789226714 electrons
E(X)               :     -132.672702907801 Eh       
E(C)               :       -7.942367799791 Eh       
E(XC)              :     -140.615070707592 Eh       

---------------
SCF CONVERGENCE
---------------

  Last Energy change         ...   -5.1982e-09  Tolerance :   1.0000e-08
  Last MAX-Density change    ...    8.7536e-05  Tolerance :   1.0000e-07
  Last RMS-Density change    ...    2.7296e-06  Tolerance :   5.0000e-09
  Last DIIS Error            ...    1.2077e-03  Tolerance :   5.0000e-07
  Last Orbital Gradient      ...    1.6965e-05  Tolerance :   1.0000e-05
  Last Orbital Rotation      ...    2.4991e-05  Tolerance :   1.0000e-05


Total SCF time: 0 days 0 hours 1 min 1 sec 
Finished LeanSCF after  61.5 sec

Maximum memory used throughout the entire LEANSCF-calculation: 138.1 MB

-------------------------   --------------------
FINAL SINGLE POINT ENERGY     -1259.405035106047
-------------------------   --------------------



           ************************************************************
           *        Program running with 16 parallel MPI-processes    *
           *              working on a common directory               *
           ************************************************************
------------------------------------------------------------------------------
                         ORCA SCF GRADIENT CALCULATION
------------------------------------------------------------------------------

Nuc. rep. gradient        (SHARK) ... done (  0.0 sec)
HCore & Overlap gradient  (SHARK) ... done (  0.3 sec)
Split-RIJ-J gradient      (SHARK) ... done (  1.8 sec)
COSX-gradient                     ... done ( 18.3 sec)
XC gradient                       ... done (  2.4 sec)

------------------
CARTESIAN GRADIENT
------------------

   1   O   :    0.000270719    0.002197239   -0.001012634
   2   C   :    0.000028041   -0.004780826    0.002607648
   3   N   :   -0.001346660   -0.000763514   -0.001228189
   4   C   :   -0.000697396    0.004557030   -0.002899480
   5   O   :    0.000568136   -0.001839201    0.001492490
   6   C   :    0.000138235    0.001146549    0.000567751
   7   C   :    0.000546280    0.001185046   -0.000302039
   8   C   :   -0.001456176    0.001292339   -0.001236362
   9   C   :   -0.001692628    0.004057331   -0.001669169
  10   O   :   -0.000463007   -0.002014023    0.002178223
  11   N   :    0.003041610   -0.000675315   -0.000671439
  12   C   :    0.002010373   -0.000207168   -0.000818626
  13   C   :    0.001115215   -0.000663417    0.001474223
  14   C   :   -0.000635777    0.001309100    0.000122618
  15   C   :   -0.001163956    0.000011720    0.000379904
  16   C   :    0.002445080   -0.000166730   -0.000802264
  17   C   :   -0.000086298   -0.000508454    0.000394577
  18   C   :   -0.000409462   -0.000112960    0.000055899
  19   C   :    0.000040306    0.000001437   -0.000016224
  20   C   :   -0.000350217    0.000161548    0.000186483
  21   C   :   -0.000252141    0.000526404   -0.000276322
  22   C   :   -0.000871374   -0.001109433    0.000324889
  23   C   :    0.000093631    0.000672793   -0.001782679
  24   C   :   -0.000577990   -0.002924136    0.002589255
  25   O   :   -0.001437849    0.001730747   -0.001769418
  26   C   :   -0.001434951   -0.000877127    0.001546529
  27   C   :    0.000417454   -0.000204543    0.000105889
  28   C   :    0.000540534   -0.000878556   -0.000015488
  29   H   :   -0.000106784   -0.000048583    0.000073934
  30   H   :   -0.000049615   -0.000416353    0.000500708
  31   H   :    0.000073008   -0.000228214   -0.000018140
  32   H   :   -0.000023109    0.000033197    0.000417950
  33   H   :   -0.000121656   -0.000528063    0.000217334
  34   H   :    0.000853330    0.000516437   -0.000403633
  35   H   :   -0.000245022   -0.000003906    0.000017289
  36   H   :   -0.000131516   -0.000082112   -0.000129578
  37   H   :   -0.000127217   -0.000086222    0.000040325
  38   H   :   -0.000125091    0.000007332    0.000040547
  39   H   :   -0.000115203    0.000098046    0.000041320
  40   H   :   -0.000013064    0.000090587    0.000168064
  41   H   :   -0.000146207    0.000023011    0.000186429
  42   H   :    0.001027050   -0.000704420   -0.000178848
  43   H   :    0.000571008   -0.000271348   -0.000215427
  44   H   :   -0.000250398   -0.000300599    0.000123909
  45   H   :    0.000251904    0.000205584   -0.000108203
  46   H   :    0.000298849    0.000571745   -0.000300025

Difference to translation invariance:
           :   -0.0000000000   -0.0000000000   -0.0000000000

Difference to rotation invariance:
           :   -0.0001609776    0.0000585597   -0.0002846787

Norm of the Cartesian gradient     ...    0.0136575755
RMS gradient                       ...    0.0011626100
MAX gradient                       ...    0.0047808256

-------
TIMINGS
-------

Total SCF gradient time     ....       22.842 sec

Densities                   ....       0.007 sec  (  0.0%)
One electron gradient       ....       0.322 sec  (  1.4%)
RI-J Coulomb gradient       ....       1.786 sec  (  7.8%)
COSX gradient               ....      18.322 sec  ( 80.2%)
XC gradient                 ....       2.404 sec  ( 10.5%)

Maximum memory used throughout the entire SCFGRAD-calculation: 163.2 MB
------------------------------------------------------------------------------
                         ORCA GEOMETRY RELAXATION STEP
------------------------------------------------------------------------------

Reading the OPT-File                    .... done
Getting information on internals        .... done
Copying old internal coords+grads       .... done
Making the new internal coordinates     .... (2022 redundants) done
Validating the new internal coordinates .... (2022 redundants) done
Calculating the B-matrix                .... done
Calculating the G,G- and P matrices     .... done
Transforming gradient to internals      .... done
Projecting the internal gradient        .... done
Number of atoms                         ....  46
Number of internal coordinates          .... 268
Current Energy                          .... -1259.405035106 Eh
Current gradient norm                   ....     0.013657576 Eh/bohr
Maximum allowed component of the step   ....  0.300
Current trust radius                    ....  0.450
Updating the Hessian (BFGS)             .... done
Forming the augmented Hessian           .... done
Diagonalizing the augmented Hessian     .... done
Last element of RFO vector              ....  0.884500643
Lowest eigenvalues of augmented Hessian:
 -0.001923130  0.005993947  0.014992982  0.015589724  0.016083624
Length of the computed step             ....  0.527460297
Warning: the length of the step is outside the trust region - taking restricted step instead
The input lambda is                     ....     0.003280
   iter:   5  x=   -0.001608  g=  234.187983 f(x)=     0.325541
   iter:  10  x=   -0.002996  g=   55.389546 f(x)=     0.000000
The output lambda is                    ....    -0.002996 (11 iterations)
The final length of the internal step   ....  0.450000000
Converting the step to Cartesian space:
 Initial RMS(Int)=    0.0274881250
Transforming coordinates:
 Iter   0:  RMS(Cart)=    0.1696742570 RMS(Int)=    0.5430446192
 Iter   5:  RMS(Cart)=    0.0000048277 RMS(Int)=    0.0000019206
done
Storing new coordinates                 .... done
The predicted energy change is          ....    -0.001137589
Previously predicted energy change      ....    -0.000830827
Actually observed energy change         ....    -0.001159108
Ratio of predicted to observed change   ....     1.395124689
New trust radius                        ....     0.450000000

                                .--------------------.
          ----------------------|Geometry convergence|-------------------------
          Item                value                   Tolerance       Converged
          ---------------------------------------------------------------------
          Energy change      -0.0011591078            0.0000050000      NO
          RMS gradient        0.0006581881            0.0001000000      NO
          MAX gradient        0.0032725915            0.0003000000      NO
          RMS step            0.0274881250            0.0020000000      NO
          MAX step            0.2037102895            0.0040000000      NO
          -------------------------------------------------------------------------
          ........................................................
          Max(Bonds)      0.0061      Max(Angles)    0.81
          Max(Dihed)       11.67      Max(Improp)    0.00
          ---------------------------------------------------------------------

The optimization has not yet converged - more geometry cycles are needed


    ---------------------------------------------------------------------------
                         Redundant Internal Coordinates
                            (Angstroem and degrees)

        Definition                    Value    dE/dq     Step     New-Value
    ----------------------------------------------------------------------------
     1. B(C   1,O   0)                1.2011 -0.002338  0.0000    1.2012   
     2. B(N   2,C   1)                1.3991  0.002175  0.0000    1.3991   
     3. B(C   3,N   2)                1.4020  0.002260  0.0003    1.4023   
     4. B(O   4,C   3)                1.2005 -0.002347 -0.0000    1.2005   
     5. B(C   5,C   3)                1.5239  0.001120 -0.0005    1.5233   
     6. B(C   6,C   5)                1.5165  0.000329 -0.0006    1.5159   
     7. B(C   7,C   6)                1.5371 -0.000425  0.0017    1.5387   
     8. B(C   8,C   7)                1.5266  0.000949 -0.0019    1.5247   
     9. B(O   9,C   8)                1.2018 -0.002954  0.0006    1.2024   
    10. B(N  10,C   8)                1.4153  0.003273 -0.0009    1.4145   
    11. B(C  11,N  10)                1.4369  0.003078 -0.0061    1.4308   
    12. B(C  12,C  11)                1.3968  0.000596 -0.0013    1.3955   
    13. B(C  13,C  12)                1.3857 -0.001164  0.0004    1.3861   
    14. B(C  14,C  13)                1.3964 -0.000976  0.0016    1.3980   
    15. B(C  15,C  14)                1.4835  0.000926 -0.0007    1.4828   
    16. B(C  16,C  15)                1.3984 -0.000984  0.0013    1.3998   
    17. B(C  17,C  16)                1.3886 -0.000570  0.0001    1.3887   
    18. B(C  18,C  17)                1.3907 -0.000104  0.0002    1.3908   
    19. B(C  19,C  18)                1.3907 -0.000101  0.0002    1.3908   
    20. B(C  20,C  19)                1.3885 -0.000574  0.0001    1.3887   
    21. B(C  20,C  15)                1.3984 -0.000984  0.0014    1.3998   
    22. B(C  21,C  14)                1.3967 -0.000878  0.0015    1.3982   
    23. B(C  22,C  21)                1.3854 -0.001146  0.0004    1.3858   
    24. B(C  22,C  11)                1.3970  0.000667 -0.0014    1.3955   
    25. B(C  23,N  10)                1.4155  0.002551  0.0007    1.4163   
    26. B(O  24,C  23)                1.2018 -0.002862  0.0003    1.2022   
    27. B(C  25,C  23)                1.5208  0.000726 -0.0010    1.5197   
    28. B(C  25,C   7)                1.5469  0.001267 -0.0027    1.5443   
    29. B(C  26,C  25)                1.5569  0.000120  0.0023    1.5593   
    30. B(C  27,C   5)                1.5344  0.001512 -0.0036    1.5308   
    31. B(C  27,C   1)                1.5250  0.001106 -0.0004    1.5246   
    32. B(C  27,C  26)                1.5158  0.000360 -0.0011    1.5147   
    33. B(H  28,N   2)                1.0106  0.000066  0.0000    1.0106   
    34. B(H  29,C   5)                1.0991 -0.000270  0.0012    1.1003   
    35. B(H  30,C   6)                1.0928 -0.000136  0.0001    1.0929   
    36. B(H  31,C   6)                1.0895 -0.000257  0.0003    1.0899   
    37. B(H  32,C   7)                1.0957 -0.000260  0.0009    1.0966   
    38. B(H  33,C  12)                1.0762 -0.000943  0.0024    1.0786   
    39. B(H  34,C  13)                1.0826 -0.000119  0.0003    1.0829   
    40. B(H  35,C  16)                1.0828 -0.000083 -0.0001    1.0828   
    41. B(H  36,C  17)                1.0829 -0.000140  0.0003    1.0832   
    42. B(H  37,C  18)                1.0826 -0.000132  0.0001    1.0827   
    43. B(H  38,C  19)                1.0829 -0.000138  0.0003    1.0832   
    44. B(H  39,C  20)                1.0829 -0.000085 -0.0001    1.0828   
    45. B(H  40,C  21)                1.0826 -0.000134  0.0003    1.0829   
    46. B(H  41,C  22)                1.0762 -0.001077  0.0026    1.0787   
    47. B(H  42,C  25)                1.0895 -0.000396  0.0008    1.0903   
    48. B(H  43,C  26)                1.0940 -0.000131  0.0002    1.0942   
    49. B(H  44,C  26)                1.0892 -0.000239 -0.0000    1.0892   
    50. B(H  45,C  27)                1.0997 -0.000203  0.0009    1.1006   
    51. A(O   0,C   1,N   2)          125.51 -0.000302   -0.17    125.35   
    52. A(O   0,C   1,C  27)          129.53  0.000781    0.24    129.77   
    53. A(N   2,C   1,C  27)          104.91 -0.000472   -0.13    104.78   
    54. A(C   1,N   2,H  28)          122.57 -0.000188   -0.08    122.49   
    55. A(C   1,N   2,C   3)          114.81  0.000254    0.23    115.03   
    56. A(C   3,N   2,H  28)          122.62 -0.000068   -0.13    122.48   
    57. A(N   2,C   3,C   5)          104.86 -0.000435   -0.10    104.76   
    58. A(O   4,C   3,C   5)          129.80  0.000707    0.26    130.05   
    59. A(N   2,C   3,O   4)          125.31 -0.000262   -0.20    125.11   
    60. A(C   3,C   5,C  27)          103.25  0.000329    0.32    103.57   
    61. A(C   3,C   5,H  29)          104.13  0.000083   -0.33    103.80   
    62. A(C   6,C   5,H  29)          108.52  0.000123   -0.04    108.47   
    63. A(C  27,C   5,H  29)          107.38 -0.000513   -0.16    107.22   
    64. A(C   3,C   5,C   6)          121.10 -0.000256    0.13    121.22   
    65. A(C   6,C   5,C  27)          111.55  0.000168    0.01    111.56   
    66. A(C   5,C   6,H  30)          109.76 -0.000058    0.08    109.84   
    67. A(C   5,C   6,C   7)          109.04 -0.000239    0.13    109.17   
    68. A(C   7,C   6,H  31)          109.27 -0.000061   -0.47    108.80   
    69. A(C   5,C   6,H  31)          111.92  0.000316    0.02    111.94   
    70. A(H  30,C   6,H  31)          107.51 -0.000059    0.24    107.74   
    71. A(C   7,C   6,H  30)          109.30  0.000103   -0.00    109.30   
    72. A(C   8,C   7,H  32)          104.42  0.000338   -0.46    103.96   
    73. A(C   6,C   7,H  32)          108.06 -0.000075    0.05    108.12   
    74. A(C   6,C   7,C   8)          114.23 -0.000050   -0.12    114.11   
    75. A(C   8,C   7,C  25)          102.79 -0.000176    0.46    103.25   
    76. A(C   6,C   7,C  25)          119.07  0.000403    0.19    119.26   
    77. A(C  25,C   7,H  32)          107.14 -0.000461   -0.21    106.93   
    78. A(O   9,C   8,N  10)          125.76 -0.000586   -0.35    125.41   
    79. A(C   7,C   8,O   9)          126.15 -0.000396    0.64    126.79   
    80. A(C   7,C   8,N  10)          108.08  0.000980   -0.29    107.79   
    81. A(C   8,N  10,C  23)          110.49 -0.002039    0.55    111.04   
    82. A(C   8,N  10,C  11)          124.68  0.001302   -0.32    124.35   
    83. A(C  11,N  10,C  23)          124.83  0.000737   -0.22    124.60   
    84. A(C  12,C  11,C  22)          119.02 -0.000707    0.54    119.56   
    85. A(N  10,C  11,C  22)          120.47  0.000638   -0.31    120.16   
    86. A(N  10,C  11,C  12)          120.51  0.000069   -0.23    120.28   
    87. A(C  13,C  12,H  33)          119.32 -0.000509    0.77    120.09   
    88. A(C  11,C  12,H  33)          120.65  0.000516   -0.48    120.17   
    89. A(C  11,C  12,C  13)          120.01 -0.000007   -0.29    119.72   
    90. A(C  12,C  13,C  14)          121.86  0.000519   -0.03    121.83   
    91. A(C  14,C  13,H  34)          119.67 -0.000049   -0.12    119.55   
    92. A(C  12,C  13,H  34)          118.46 -0.000470    0.14    118.60   
    93. A(C  15,C  14,C  21)          121.39  0.000141   -0.05    121.34   
    94. A(C  13,C  14,C  21)          117.24 -0.000272    0.09    117.34   
    95. A(C  13,C  14,C  15)          121.37  0.000130   -0.04    121.33   
    96. A(C  16,C  15,C  20)          118.34  0.000575   -0.07    118.26   
    97. A(C  14,C  15,C  20)          120.81 -0.000315    0.04    120.86   
    98. A(C  14,C  15,C  16)          120.85 -0.000260    0.03    120.88   
    99. A(C  15,C  16,C  17)          120.85 -0.000178    0.01    120.85   
   100. A(C  17,C  16,H  35)          119.68  0.000230    0.11    119.79   
   101. A(C  15,C  16,H  35)          119.46 -0.000051   -0.12    119.34   
   102. A(C  16,C  17,C  18)          120.25 -0.000053    0.05    120.30   
   103. A(C  18,C  17,H  36)          120.09  0.000095   -0.03    120.06   
   104. A(C  16,C  17,H  36)          119.66 -0.000042   -0.02    119.64   
   105. A(C  17,C  18,C  19)          119.48 -0.000115   -0.04    119.44   
   106. A(C  19,C  18,H  37)          120.26  0.000057    0.02    120.28   
   107. A(C  17,C  18,H  37)          120.26  0.000058    0.02    120.28   
   108. A(C  18,C  19,C  20)          120.24 -0.000054    0.05    120.29   
   109. A(C  20,C  19,H  38)          119.66 -0.000044   -0.02    119.64   
   110. A(C  18,C  19,H  38)          120.09  0.000098   -0.03    120.06   
   111. A(C  15,C  20,C  19)          120.85 -0.000175    0.00    120.85   
   112. A(C  19,C  20,H  39)          119.68  0.000219    0.11    119.79   
   113. A(C  15,C  20,H  39)          119.46 -0.000043   -0.12    119.34   
   114. A(C  14,C  21,C  22)          121.84  0.000560   -0.04    121.80   
   115. A(C  22,C  21,H  40)          118.49 -0.000437    0.14    118.62   
   116. A(C  14,C  21,H  40)          119.66 -0.000123   -0.10    119.56   
   117. A(C  11,C  22,C  21)          120.03 -0.000094   -0.28    119.75   
   118. A(C  21,C  22,H  41)          119.25 -0.000602    0.78    120.02   
   119. A(C  11,C  22,H  41)          120.71  0.000696   -0.51    120.20   
   120. A(O  24,C  23,C  25)          125.71 -0.000527    0.81    126.52   
   121. A(N  10,C  23,C  25)          108.39  0.001026   -0.32    108.07   
   122. A(N  10,C  23,O  24)          125.85 -0.000507   -0.49    125.36   
   123. A(C  26,C  25,H  42)          108.85  0.000267   -0.38    108.48   
   124. A(C  23,C  25,H  42)          108.38 -0.000400   -0.09    108.29   
   125. A(C   7,C  25,H  42)          112.35  0.000081    0.31    112.66   
   126. A(C  23,C  25,C  26)          108.74 -0.000105   -0.20    108.54   
   127. A(C   7,C  25,C  26)          115.23 -0.000055    0.00    115.23   
   128. A(C   7,C  25,C  23)          102.92  0.000159    0.37    103.28   
   129. A(C  25,C  26,C  27)          108.38 -0.000155   -0.06    108.32   
   130. A(C  27,C  26,H  44)          112.44  0.000315    0.18    112.63   
   131. A(C  25,C  26,H  44)          109.18 -0.000178   -0.01    109.17   
   132. A(C  27,C  26,H  43)          109.41 -0.000110   -0.15    109.26   
   133. A(C  25,C  26,H  43)          110.62  0.000328   -0.35    110.27   
   134. A(H  43,C  26,H  44)          106.82 -0.000188    0.38    107.20   
   135. A(C   5,C  27,C  26)          111.31  0.000028   -0.03    111.28   
   136. A(C   1,C  27,C  26)          120.91 -0.000248    0.10    121.02   
   137. A(C  26,C  27,H  45)          108.57 -0.000154    0.11    108.68   
   138. A(C   1,C  27,C   5)          103.38  0.000426    0.27    103.65   
   139. A(C   5,C  27,H  45)          107.45 -0.000754   -0.09    107.35   
   140. A(C   1,C  27,H  45)          104.35  0.000646   -0.42    103.93   
   141. D(C   3,N   2,C   1,C  27)      8.93 -0.000105   -0.05      8.87   
   142. D(H  28,N   2,C   1,C  27)   -170.08 -0.000023   -0.63   -170.70   
   143. D(C   3,N   2,C   1,O   0)   -173.35  0.000096   -0.41   -173.76   
   144. D(H  28,N   2,C   1,O   0)      7.65  0.000178   -0.99      6.66   
   145. D(C   5,C   3,N   2,C   1)     10.19 -0.000071   -0.70      9.49   
   146. D(O   4,C   3,N   2,H  28)      7.23  0.000144   -0.68      6.55   
   147. D(C   5,C   3,N   2,H  28)   -170.80 -0.000155   -0.12   -170.93   
   148. D(O   4,C   3,N   2,C   1)   -171.77  0.000228   -1.26   -173.03   
   149. D(C  27,C   5,C   3,O   4)    157.52 -0.000079    1.61    159.14   
   150. D(C   6,C   5,C   3,O   4)     31.88 -0.000424    1.17     33.06   
   151. D(C  27,C   5,C   3,N   2)    -24.56  0.000210    1.07    -23.49   
   152. D(H  29,C   5,C   3,N   2)     87.50 -0.000199    0.90     88.40   
   153. D(C   6,C   5,C   3,N   2)   -150.20 -0.000135    0.63   -149.57   
   154. D(C   7,C   6,C   5,C  27)     53.57 -0.000245   -0.40     53.16   
   155. D(C   7,C   6,C   5,H  29)    -64.53  0.000209   -0.19    -64.72   
   156. D(C   7,C   6,C   5,C   3)    175.30  0.000174    0.21    175.51   
   157. D(H  30,C   6,C   5,H  29)    175.77  0.000264   -0.32    175.45   
   158. D(H  30,C   6,C   5,C   3)     55.60  0.000228    0.09     55.68   
   159. D(H  30,C   6,C   5,C  27)    -66.14 -0.000190   -0.53    -66.66   
   160. D(C  25,C   7,C   6,H  30)     80.68 -0.000138    1.06     81.74   
   161. D(C  25,C   7,C   6,C   5)    -39.31  0.000015    0.88    -38.43   
   162. D(C   8,C   7,C   6,H  31)    -40.06 -0.000132    1.77    -38.28   
   163. D(C   8,C   7,C   6,C   5)     82.56  0.000068    1.59     84.14   
   164. D(C  25,C   7,C   6,H  31)   -161.93 -0.000185    1.07   -160.85   
   165. D(C   8,C   7,C   6,H  30)   -157.45 -0.000085    1.76   -155.69   
   166. D(N  10,C   8,C   7,C  25)    -22.91 -0.000123    1.19    -21.72   
   167. D(O   9,C   8,C   7,H  32)    -90.14 -0.000526    1.79    -88.35   
   168. D(O   9,C   8,C   7,C   6)     27.69 -0.000425    1.49     29.18   
   169. D(O   9,C   8,C   7,C  25)    158.12 -0.000077    2.01    160.13   
   170. D(N  10,C   8,C   7,C   6)   -153.35 -0.000471    0.68   -152.67   
   171. D(C  11,N  10,C   8,C   7)   -170.87  0.000028   -0.20   -171.07   
   172. D(C  23,N  10,C   8,O   9)   -171.30 -0.000024   -1.41   -172.71   
   173. D(C  23,N  10,C   8,C   7)      9.73  0.000020   -0.54      9.19   
   174. D(C  11,N  10,C   8,O   9)      8.10 -0.000015   -1.08      7.02   
   175. D(C  22,C  11,N  10,C  23)   -155.77 -0.001590   11.43   -144.34   
   176. D(C  22,C  11,N  10,C   8)     24.92 -0.001584   11.04     35.96   
   177. D(C  12,C  11,N  10,C  23)     24.08 -0.001652   11.67     35.75   
   178. D(C  12,C  11,N  10,C   8)   -155.23 -0.001647   11.28   -143.95   
   179. D(H  33,C  12,C  11,C  22)    178.44 -0.000077   -0.09    178.35   
   180. D(H  33,C  12,C  11,N  10)     -1.41 -0.000018   -0.32     -1.73   
   181. D(C  13,C  12,C  11,C  22)     -0.18 -0.000039    0.15     -0.03   
   182. D(C  13,C  12,C  11,N  10)    179.97  0.000021   -0.08    179.89   
   183. D(H  34,C  13,C  12,H  33)      0.14  0.000065   -0.02      0.13   
   184. D(C  14,C  13,C  12,H  33)   -178.44  0.000060    0.14   -178.30   
   185. D(C  14,C  13,C  12,C  11)      0.20  0.000036   -0.12      0.08   
   186. D(H  34,C  13,C  12,C  11)    178.79  0.000041   -0.27    178.51   
   187. D(C  21,C  14,C  13,H  34)   -178.60  0.000001    0.13   -178.47   
   188. D(C  21,C  14,C  13,C  12)     -0.03 -0.000000   -0.02     -0.05   
   189. D(C  15,C  14,C  13,H  34)      1.41 -0.000008    0.17      1.58   
   190. D(C  15,C  14,C  13,C  12)    179.98 -0.000009    0.01    179.99   
   191. D(C  20,C  15,C  14,C  21)   -138.08  0.000366   -4.42   -142.50   
   192. D(C  20,C  15,C  14,C  13)     41.91  0.000376   -4.46     37.45   
   193. D(C  16,C  15,C  14,C  21)     41.91  0.000367   -4.42     37.49   
   194. D(C  16,C  15,C  14,C  13)   -138.10  0.000376   -4.46   -142.56   
   195. D(H  35,C  16,C  15,C  20)   -178.79 -0.000054    0.31   -178.49   
   196. D(H  35,C  16,C  15,C  14)      1.22 -0.000054    0.31      1.52   
   197. D(C  17,C  16,C  15,C  20)     -0.06 -0.000003    0.01     -0.06   
   198. D(C  17,C  16,C  15,C  14)    179.94 -0.000004    0.01    179.95   
   199. D(C  18,C  17,C  16,C  15)      0.12  0.000007   -0.02      0.11   
   200. D(C  18,C  17,C  16,H  35)    178.85  0.000054   -0.32    178.53   
   201. D(H  36,C  17,C  16,H  35)     -0.69  0.000052   -0.25     -0.94   
   202. D(H  36,C  17,C  16,C  15)   -179.41  0.000005    0.05   -179.36   
   203. D(C  19,C  18,C  17,C  16)     -0.06 -0.000005    0.01     -0.05   
   204. D(H  37,C  18,C  17,H  36)     -0.53 -0.000001   -0.06     -0.59   
   205. D(H  37,C  18,C  17,C  16)    179.94 -0.000003    0.01    179.95   
   206. D(C  19,C  18,C  17,H  36)    179.48 -0.000003   -0.06    179.42   
   207. D(H  38,C  19,C  18,H  37)     -0.53 -0.000001   -0.06     -0.59   
   208. D(H  38,C  19,C  18,C  17)    179.46  0.000000   -0.07    179.40   
   209. D(C  20,C  19,C  18,H  37)    179.94 -0.000004    0.01    179.95   
   210. D(C  20,C  19,C  18,C  17)     -0.07 -0.000003    0.00     -0.06   
   211. D(H  39,C  20,C  19,H  38)     -0.68  0.000048   -0.23     -0.92   
   212. D(H  39,C  20,C  19,C  18)    178.85  0.000051   -0.31    178.54   
   213. D(C  15,C  20,C  19,H  38)   -179.41  0.000004    0.06   -179.35   
   214. D(C  15,C  20,C  19,C  18)      0.13  0.000007   -0.02      0.11   
   215. D(H  39,C  20,C  15,C  16)   -178.79 -0.000052    0.30   -178.49   
   216. D(H  39,C  20,C  15,C  14)      1.20 -0.000051    0.30      1.50   
   217. D(C  19,C  20,C  15,C  16)     -0.06 -0.000004    0.01     -0.05   
   218. D(C  19,C  20,C  15,C  14)    179.93 -0.000004    0.01    179.94   
   219. D(H  40,C  21,C  14,C  15)      1.23 -0.000048    0.30      1.53   
   220. D(H  40,C  21,C  14,C  13)   -178.75 -0.000057    0.33   -178.42   
   221. D(C  22,C  21,C  14,C  15)    179.83 -0.000026    0.09    179.92   
   222. D(C  22,C  21,C  14,C  13)     -0.16 -0.000035    0.12     -0.04   
   223. D(H  41,C  22,C  21,H  40)      0.14  0.000068   -0.04      0.10   
   224. D(H  41,C  22,C  21,C  14)   -178.47  0.000043    0.18   -178.30   
   225. D(C  11,C  22,C  21,H  40)    178.79  0.000056   -0.30    178.49   
   226. D(C  11,C  22,C  21,C  14)      0.18  0.000031   -0.08      0.09   
   227. D(H  41,C  22,C  11,C  12)    178.63 -0.000023   -0.30    178.32   
   228. D(H  41,C  22,C  11,N  10)     -1.52 -0.000083   -0.08     -1.60   
   229. D(C  21,C  22,C  11,C  12)     -0.00  0.000007   -0.05     -0.05   
   230. D(C  21,C  22,C  11,N  10)    179.85 -0.000053    0.18    180.03   
   231. D(C  25,C  23,N  10,C  11)   -171.20  0.000128   -0.75   -171.96   
   232. D(C  25,C  23,N  10,C   8)      8.20  0.000140   -0.42      7.77   
   233. D(O  24,C  23,N  10,C  11)      6.47 -0.000077   -0.42      6.05   
   234. D(O  24,C  23,N  10,C   8)   -174.13 -0.000065   -0.09   -174.22   
   235. D(H  42,C  25,C  23,N  10)   -141.23 -0.000252    0.64   -140.58   
   236. D(C  26,C  25,C  23,O  24)    -77.09 -0.000083    1.07    -76.02   
   237. D(C   7,C  25,C  23,O  24)    160.26 -0.000054    0.96    161.21   
   238. D(C   7,C  25,C  23,N  10)    -22.06 -0.000258    1.14    -20.93   
   239. D(C  26,C  25,C   7,H  32)    158.49 -0.000031   -0.80    157.68   
   240. D(C  26,C  25,C   7,C   8)    -91.81  0.000109   -1.20    -93.01   
   241. D(C  26,C  25,C   7,C   6)     35.62  0.000175   -0.83     34.79   
   242. D(C  26,C  25,C  23,N  10)    100.59 -0.000287    1.25    101.84   
   243. D(C  23,C  25,C   7,H  32)    -83.32 -0.000083   -0.80    -84.12   
   244. D(C  23,C  25,C   7,C   8)     26.38  0.000057   -1.19     25.19   
   245. D(C  23,C  25,C   7,C   6)    153.81  0.000123   -0.83    152.98   
   246. D(H  43,C  26,C  25,H  42)   -155.99  0.000245   -0.12   -156.10   
   247. D(H  43,C  26,C  25,C  23)    -38.11 -0.000143   -0.55    -38.66   
   248. D(H  43,C  26,C  25,C   7)     76.78 -0.000048   -0.22     76.56   
   249. D(C  27,C  26,C  25,H  42)     84.07  0.000280    0.32     84.38   
   250. D(C  27,C  26,C  25,C  23)   -158.05 -0.000108   -0.12   -158.17   
   251. D(C  27,C  26,C  25,C   7)    -43.17 -0.000013    0.21    -42.95   
   252. D(C   5,C  27,C  26,C  25)     59.09 -0.000128    0.35     59.44   
   253. D(C   1,C  27,C  26,H  44)    -58.58  0.000174    0.87    -57.71   
   254. D(C   1,C  27,C  26,H  43)     59.94  0.000064    1.37     61.30   
   255. D(C  26,C  27,C   5,H  29)     50.99  0.000017   -0.40     50.59   
   256. D(C  26,C  27,C   5,C   6)    -67.78  0.000090   -0.26    -68.05   
   257. D(C  26,C  27,C   5,C   3)    160.65  0.000060   -0.70    159.95   
   258. D(C   1,C  27,C   5,H  29)    -80.28  0.000000   -0.74    -81.01   
   259. D(C   1,C  27,C   5,C   6)    160.95  0.000074   -0.60    160.35   
   260. D(C   1,C  27,C   5,C   3)     29.39  0.000044   -1.04     28.35   
   261. D(H  45,C  27,C   1,O   0)    -89.21 -0.000400    0.89    -88.32   
   262. D(C   1,C  27,C  26,C  25)   -179.37  0.000303    0.82   -178.55   
   263. D(C  26,C  27,C   1,N   2)   -149.18 -0.000039    0.41   -148.77   
   264. D(C  26,C  27,C   1,O   0)     33.23 -0.000214    0.74     33.97   
   265. D(C   5,C  27,C   1,N   2)    -23.88  0.000207    0.72    -23.16   
   266. D(C   5,C  27,C  26,H  43)    -61.60 -0.000367    0.90    -60.70   
   267. D(C   5,C  27,C   1,O   0)    158.52  0.000032    1.05    159.57   
   268. D(C   5,C  27,C  26,H  44)    179.87 -0.000257    0.41    180.28   
    ----------------------------------------------------------------------------

Geometry step timings:
Preparation and reading OPT file:      0.000 s ( 0.148 %)
Internal coordinates            :      0.000 s ( 0.223 %)
B/P matrices and projection     :      0.007 s (37.095 %)
Hessian update/contruction      :      0.002 s ( 8.084 %)
Making the step                 :      0.009 s (45.916 %)
Converting the step to Cartesian:      0.001 s ( 2.939 %)
Storing new data                :      0.000 s ( 0.198 %)
Checking convergence            :      0.000 s ( 0.421 %)
Final printing                  :      0.001 s ( 4.977 %)
Total time                      :      0.020 s

Time for energy+gradient        :     88.875 s
Time for complete geometry iter :     89.112 s

         *************************************************************
         *                GEOMETRY OPTIMIZATION CYCLE   5            *
         *************************************************************
---------------------------------
CARTESIAN COORDINATES (ANGSTROEM)
---------------------------------
  O     -5.762862   -2.989028    0.482754
  C     -5.601578   -1.828112    0.219929
  N     -6.338040   -1.101281   -0.721777
  C     -5.879306    0.203166   -0.955232
  O     -6.439770    1.021687   -1.631258
  C     -4.541599    0.279987   -0.230416
  C     -4.038490    1.584928    0.354317
  C     -2.726396    1.324925    1.114947
  C     -1.483742    1.323846    0.231592
  O     -1.324814    1.940476   -0.788307
  N     -0.516944    0.494735    0.846955
  C      0.843211    0.384112    0.416915
  C      1.505353   -0.842398    0.485669
  C      2.822251   -0.936900    0.063770
  C      3.518583    0.168968   -0.432801
  C      4.927470    0.055232   -0.881045
  C      5.842386    1.087760   -0.644092
  C      7.161911    0.980131   -1.063250
  C      7.595350   -0.160724   -1.730291
  C      6.696293   -1.193679   -1.973325
  C      5.377169   -1.087713   -1.552498
  C      2.833075    1.386186   -0.490751
  C      1.515947    1.503038   -0.076034
  C     -1.075565   -0.214009    1.938554
  O     -0.463203   -0.913864    2.700389
  C     -2.575996    0.027308    1.938550
  C     -3.280042   -1.227299    1.337245
  C     -4.648109   -0.811294    0.837733
  H     -7.144790   -1.485497   -1.193852
  H     -3.816156   -0.068427   -0.980760
  H     -4.781274    1.992945    1.044368
  H     -3.855322    2.333002   -0.416797
  H     -2.560174    2.161494    1.804184
  H      1.003492   -1.707444    0.889603
  H      3.326186   -1.891659    0.147853
  H      5.519499    1.969209   -0.104453
  H      7.855926    1.786720   -0.860373
  H      8.623993   -0.243941   -2.057740
  H      7.020644   -2.082582   -2.500609
  H      4.678324   -1.886568   -1.766774
  H      3.329702    2.260277   -0.893213
  H      1.005922    2.449974   -0.159008
  H     -2.903532    0.145332    2.971789
  H     -2.696378   -1.625366    0.501699
  H     -3.330177   -2.007386    2.095726
  H     -5.218427   -0.391186    1.680115

----------------------------
CARTESIAN COORDINATES (A.U.)
----------------------------
  NO LB      ZA    FRAG     MASS         X           Y           Z
   0 O     8.0000    0    15.999  -10.890230   -5.648445    0.912272
   1 C     6.0000    0    12.011  -10.585449   -3.454631    0.415605
   2 N     7.0000    0    14.007  -11.977161   -2.081119   -1.363961
   3 C     6.0000    0    12.011  -11.110277    0.383928   -1.805126
   4 O     8.0000    0    15.999  -12.169401    1.930708   -3.082631
   5 C     6.0000    0    12.011   -8.582378    0.529099   -0.435424
   6 C     6.0000    0    12.011   -7.631641    2.995081    0.669561
   7 C     6.0000    0    12.011   -5.152142    2.503746    2.106945
   8 C     6.0000    0    12.011   -2.803866    2.501706    0.437646
   9 O     8.0000    0    15.999   -2.503536    3.666968   -1.489685
  10 N     7.0000    0    14.007   -0.976882    0.934914    1.600512
  11 C     6.0000    0    12.011    1.593437    0.725867    0.787856
  12 C     6.0000    0    12.011    2.844705   -1.591902    0.917781
  13 C     6.0000    0    12.011    5.333282   -1.770485    0.120508
  14 C     6.0000    0    12.011    6.649158    0.319303   -0.817875
  15 C     6.0000    0    12.011    9.311568    0.104373   -1.664933
  16 C     6.0000    0    12.011   11.040509    2.055569   -1.217158
  17 C     6.0000    0    12.011   13.534050    1.852179   -2.009252
  18 C     6.0000    0    12.011   14.353131   -0.303724   -3.269776
  19 C     6.0000    0    12.011   12.654160   -2.255726   -3.729044
  20 C     6.0000    0    12.011   10.161377   -2.055480   -2.933796
  21 C     6.0000    0    12.011    5.353737    2.619512   -0.927385
  22 C     6.0000    0    12.011    2.864725    2.840331   -0.143684
  23 C     6.0000    0    12.011   -2.032523   -0.404419    3.663336
  24 O     8.0000    0    15.999   -0.875327   -1.726952    5.102996
  25 C     6.0000    0    12.011   -4.867927    0.051604    3.663328
  26 C     6.0000    0    12.011   -6.198381   -2.319259    2.527028
  27 C     6.0000    0    12.011   -8.783652   -1.533123    1.583085
  28 H     1.0000    0     1.008  -13.501697   -2.807182   -2.256053
  29 H     1.0000    0     1.008   -7.211490   -0.129308   -1.853369
  30 H     1.0000    0     1.008   -9.035299    3.766120    1.973569
  31 H     1.0000    0     1.008   -7.285503    4.408735   -0.787633
  32 H     1.0000    0     1.008   -4.838028    4.084631    3.409413
  33 H     1.0000    0     1.008    1.896325   -3.226601    1.681106
  34 H     1.0000    0     1.008    6.285580   -3.574718    0.279402
  35 H     1.0000    0     1.008   10.430342    3.721266   -0.197388
  36 H     1.0000    0     1.008   14.845549    3.376412   -1.625869
  37 H     1.0000    0     1.008   16.296985   -0.460981   -3.888565
  38 H     1.0000    0     1.008   13.267095   -3.935509   -4.725466
  39 H     1.0000    0     1.008    8.840751   -3.565098   -3.338718
  40 H     1.0000    0     1.008    6.292225    4.271304   -1.687928
  41 H     1.0000    0     1.008    1.900917    4.629780   -0.300481
  42 H     1.0000    0     1.008   -5.486880    0.274637    5.615868
  43 H     1.0000    0     1.008   -5.095416   -3.071498    0.948074
  44 H     1.0000    0     1.008   -6.293123   -3.793409    3.960349
  45 H     1.0000    0     1.008   -9.861398   -0.739235    3.174957

--------------------------------
INTERNAL COORDINATES (ANGSTROEM)
--------------------------------
 O      0   0   0     0.000000000000     0.00000000     0.00000000
 C      1   0   0     1.201172674829     0.00000000     0.00000000
 N      2   1   0     1.399096146316   125.35819032     0.00000000
 C      3   2   1     1.402326818590   115.03043588   186.27113626
 O      4   3   2     1.200461599767   125.11861035   187.00394949
 C      4   3   2     1.523390313622   104.77069749     9.49285239
 C      6   4   3     1.515883522908   121.22353557   210.43469839
 C      7   6   4     1.538750242548   109.16097792   175.50715251
 C      8   7   6     1.524633360400   114.12401565    84.15849375
 O      9   8   7     1.202366776348   126.78630110    29.20727373
 N      9   8   7     1.414494335457   107.78462381   207.32609786
 C     11   9   8     1.430800936132   124.35435505   188.90282698
 C     12  11   9     1.395523892490   120.27777252   216.05609065
 C     13  12  11     1.386055455281   119.71782213   179.88788909
 C     14  13  12     1.398000189811   121.83159422     0.08398600
 C     15  14  13     1.482842113335   121.32876956   179.99429309
 C     16  15  14     1.399761920544   120.88216142   217.44075650
 C     17  16  15     1.388677046975   120.85101189   179.95023456
 C     18  17  16     1.390813511380   120.29583133     0.10698850
 C     19  18  17     1.390814462974   119.44394645   359.95425924
 C     20  19  18     1.388672825523   120.29302694   359.93799161
 C     15  14  13     1.398176850390   117.33360729   359.94887038
 C     22  15  14     1.385810397077   121.80239947   359.96299076
 C     11   9   8     1.416320871494   111.04094503     9.18333480
 O     24  11   9     1.202154810766   125.36915857   185.72510039
 C     24  11   9     1.519713056742   108.05620135     7.78519898
 C     26  24  11     1.559257805918   108.54395969   101.83934073
 C     27  26  24     1.514655110948   108.30127976   201.84209015
 H      3   2   1     1.010604942443   122.48705376     6.69366174
 H      6   4   3     1.100307042095   103.79908914    88.40382587
 H      7   6   4     1.092874885353   109.83877274    55.68304579
 H      7   6   4     1.089853826724   111.94636194   296.03821317
 H      8   7   6     1.096596142759   108.12183051   199.28273581
 H     13  12  11     1.078578522015   120.16998890   358.27021701
 H     14  13  12     1.082859632253   118.59616220   178.51372415
 H     17  16  15     1.082782326017   119.33682203     1.52299994
 H     18  17  16     1.083237304677   119.63941465   180.63959355
 H     19  18  17     1.082706773746   120.27685294   179.94526968
 H     20  19  18     1.083226715992   120.06372707   179.39645153
 H     21  20  19     1.082805515602   119.78936016   178.54399938
 H     22  15  14     1.082888600292   119.55551023   181.57836409
 H     23  22  15     1.078748361368   120.02386043   181.70684114
 H     26  24  11     1.090317952616   108.28708387   219.41331930
 H     27  26  24     1.094193282802   110.26393587   321.34651812
 H     27  26  24     1.089193475221   109.17845186    78.87623104
 H     28  27  26     1.100618377698   108.69056403   301.42718717

---------------------------
INTERNAL COORDINATES (A.U.)
---------------------------
 O      0   0   0     0.000000000000     0.00000000     0.00000000
 C      1   0   0     2.269887394977     0.00000000     0.00000000
 N      2   1   0     2.643908551561   125.35819032     0.00000000
 C      3   2   1     2.650013637389   115.03043588   186.27113626
 O      4   3   2     2.268543657849   125.11861035   187.00394949
 C      4   3   2     2.878790487813   104.77069749     9.49285239
 C      6   4   3     2.864604709219   121.22353557   210.43469839
 C      7   6   4     2.907816546921   109.16097792   175.50715251
 C      8   7   6     2.881139505797   114.12401565    84.15849375
 O      9   8   7     2.272143919824   126.78630110    29.20727373
 N      9   8   7     2.673006911996   107.78462381   207.32609786
 C     11   9   8     2.703821921447   124.35435505   188.90282698
 C     12  11   9     2.637157970150   120.27777252   216.05609065
 C     13  12  11     2.619265216908   119.71782213   179.88788909
 C     14  13  12     2.641837493912   121.83159422     0.08398600
 C     15  14  13     2.802165494048   121.32876956   179.99429309
 C     16  15  14     2.645166682520   120.88216142   217.44075650
 C     17  16  15     2.624219307246   120.85101189   179.95023456
 C     18  17  16     2.628256639866   120.29583133     0.10698850
 C     19  18  17     2.628258438118   119.44394645   359.95425924
 C     20  19  18     2.624211329858   120.29302694   359.93799161
 C     15  14  13     2.642171334026   117.33360729   359.94887038
 C     22  15  14     2.618802124016   121.80239947   359.96299076
 C     11   9   8     2.676458564880   111.04094503     9.18333480
 O     24  11   9     2.271743362923   125.36915857   185.72510039
 C     24  11   9     2.871841479387   108.05620135     7.78519898
 C     26  24  11     2.946570225364   108.54395969   101.83934073
 C     27  26  24     2.862283347035   108.30127976   201.84209015
 H      3   2   1     1.909766570804   122.48705376     6.69366174
 H      6   4   3     2.079278972784   103.79908914    88.40382587
 H      7   6   4     2.065234231957   109.83877274    55.68304579
 H      7   6   4     2.059525258515   111.94636194   296.03821317
 H      8   7   6     2.072266389330   108.12183051   199.28273581
 H     13  12  11     2.038218020538   120.16998890   358.27021701
 H     14  13  12     2.046308146436   118.59616220   178.51372415
 H     17  16  15     2.046162058823   119.33682203     1.52299994
 H     18  17  16     2.047021843887   119.63941465   180.63959355
 H     19  18  17     2.046019285721   120.27685294   179.94526968
 H     20  19  18     2.047001834171   120.06372707   179.39645153
 H     21  20  19     2.046205880787   119.78936016   178.54399938
 H     22  15  14     2.046362888096   119.55551023   181.57836409
 H     23  22  15     2.038538970401   120.02386043   181.70684114
 H     26  24  11     2.060402329342   108.28708387   219.41331930
 H     27  26  24     2.067725642073   110.26393587   321.34651812
 H     27  26  24     2.058277375022   109.17845186    78.87623104
 H     28  27  26     2.079867311809   108.69056403   301.42718717



           ************************************************************
           *        Program running with 16 parallel MPI-processes    *
           *              working on a common directory               *
           ************************************************************
------------------------------------------------------------------------------
                   ___                                                        
                  /   \      - P O W E R E D   B Y -                         
                 /     \                                                     
                 |  |  |   _    _      __       _____    __    __             
                 |  |  |  | |  | |    /  \     |  _  \  |  |  /  |          
                  \  \/   | |  | |   /    \    | | | |  |  | /  /          
                 / \  \   | |__| |  /  /\  \   | |_| |  |  |/  /          
                |  |  |   |  __  | /  /__\  \  |    /   |      \           
                |  |  |   | |  | | |   __   |  |    \   |  |\   \          
                \     /   | |  | | |  |  |  |  | |\  \  |  | \   \       
                 \___/    |_|  |_| |__|  |__|  |_| \__\ |__|  \__/        
                                                                              
                      - O R C A' S   B I G   F R I E N D -                    
                                      &                                       
                       - I N T E G R A L  F E E D E R -                       
                                                                              
 v1 FN, 2020, v2 2021, v3 2022-2024                                           
------------------------------------------------------------------------------


----------------------
SHARK INTEGRAL PACKAGE
----------------------

Number of atoms                             ...     46
Number of basis functions                   ...    976
Number of shells                            ...    380
Maximum angular momentum                    ...      3
Integral batch strategy                     ... SHARK/LIBINT Hybrid
RI-J (if used) integral strategy            ... SPLIT-RIJ (Revised 2003 algorithm where possible)
Printlevel                                  ...      1
Contraction scheme used                     ... SEGMENTED contraction
Prescreening option                         ... SCHWARTZ
   Thresh                                   ... 2.500e-11
   Tcut                                     ... 2.500e-12
   Tpresel                                  ... 2.500e-12 
Coulomb Range Separation                    ... NOT USED
Exchange Range Separation                   ... NOT USED
Multipole approximations                    ... NOT USED
Finite Nucleus Model                        ... NOT USED
CABS basis                                  ... NOT available
Auxiliary Coulomb fitting basis             ... AVAILABLE
   # of basis functions in Aux-J            ...   1570
   # of shells in Aux-J                     ...    510
   Maximum angular momentum in Aux-J        ...      4
Auxiliary J/K fitting basis                 ... NOT available
Auxiliary Correlation fitting basis         ... NOT available
Auxiliary 'external' fitting basis          ... NOT available

Checking pre-screening integrals            ... done (  0.0 sec) Dimension = 380
   => SHARK Basis and OBASIS are compatible. Storing Pre-screening
Shell pair information
Shell pair cut-off parameter TPreSel        ...   2.5e-12
Total number of shell pairs                 ...     72390
Shell pairs after pre-screening             ...     42366
Total number of primitive shell pairs       ...    224116
Primitive shell pairs kept                  ...     86522
          la=0 lb=0:  10626 shell pairs
          la=1 lb=0:  12272 shell pairs
          la=1 lb=1:   3563 shell pairs
          la=2 lb=0:   6005 shell pairs
          la=2 lb=1:   3515 shell pairs
          la=2 lb=2:    872 shell pairs
          la=3 lb=0:   2839 shell pairs
          la=3 lb=1:   1681 shell pairs
          la=3 lb=2:    796 shell pairs
          la=3 lb=3:    197 shell pairs

Checking whether 4 symmetric matrices of dimension 976 fit in memory
:Max Core in MB      =   4096.00
 MB in use           =     62.17
 MB left             =   4033.83
 MB needed           =     14.55
 Data fit in memory  = YES
Calculating RI/J V-Matrix + Cholesky decomp.... done (  0.1 sec)
Calculating Nuclear repulsion               ... done (  0.0 sec) ENN=   2402.534666367833 Eh

Diagonalization of the overlap matrix:
Smallest eigenvalue                        ... 6.611e-06
Time for diagonalization                   ...    0.152 sec
Threshold for overlap eigenvalues          ... 1.000e-07
Number of eigenvalues below threshold      ... 0
Time for construction of square roots      ...    0.066 sec
Total time needed                          ...    0.223 sec

-------------------
DFT GRID GENERATION
-------------------

General Integration Accuracy     IntAcc      ... 4.388
Radial Grid Type                 RadialGrid  ... OptM3 with GC (2021)
Angular Grid (max. ang.)         AngularGrid ... 4 (Lebedev-302)
Angular grid pruning method      GridPruning ... 4 (adaptive)
Weight generation scheme         WeightScheme... mBecke (2022)
Basis function cutoff            BFCut       ... 1.0000e-11
Integration weight cutoff        WCut        ... 1.0000e-14
Partially contracted basis set               ... off
Rotationally invariant grid construction     ... off
Angular grids for H and He will be reduced by one unit

Total number of grid points                  ...   224202
Total number of batches                      ...     3527
Average number of points per batch           ...       63
Average number of grid points per atom       ...     4874

--------------------
COSX GRID GENERATION
--------------------

GRIDX 1
-------
General Integration Accuracy     IntAcc      ... 3.816
Radial Grid Type                 RadialGrid  ... OptM3 with GC (2021)
Angular Grid (max. ang.)         AngularGrid ... 1 (Lebedev-50)
Angular grid pruning method      GridPruning ... 4 (adaptive)
Weight generation scheme         WeightScheme... mBecke (2022)
Basis function cutoff            BFCut       ... 1.0000e-11
Integration weight cutoff        WCut        ... 1.0000e-14
Partially contracted basis set               ... on
Rotationally invariant grid construction     ... off
Angular grids for H and He will be reduced by one unit

Total number of grid points                  ...    28403
Total number of batches                      ...      248
Average number of points per batch           ...      114
Average number of grid points per atom       ...      617
UseSFitting                                  ... on

GRIDX 2
-------
General Integration Accuracy     IntAcc      ... 4.020
Radial Grid Type                 RadialGrid  ... OptM3 with GC (2021)
Angular Grid (max. ang.)         AngularGrid ... 2 (Lebedev-110)
Angular grid pruning method      GridPruning ... 4 (adaptive)
Weight generation scheme         WeightScheme... mBecke (2022)
Basis function cutoff            BFCut       ... 1.0000e-11
Integration weight cutoff        WCut        ... 1.0000e-14
Partially contracted basis set               ... on
Rotationally invariant grid construction     ... off
Angular grids for H and He will be reduced by one unit

Total number of grid points                  ...    62266
Total number of batches                      ...      510
Average number of points per batch           ...      122
Average number of grid points per atom       ...     1354
UseSFitting                                  ... on

GRIDX 3
-------
General Integration Accuracy     IntAcc      ... 4.338
Radial Grid Type                 RadialGrid  ... OptM3 with GC (2021)
Angular Grid (max. ang.)         AngularGrid ... 3 (Lebedev-194)
Angular grid pruning method      GridPruning ... 4 (adaptive)
Weight generation scheme         WeightScheme... mBecke (2022)
Basis function cutoff            BFCut       ... 1.0000e-11
Integration weight cutoff        WCut        ... 1.0000e-14
Partially contracted basis set               ... on
Rotationally invariant grid construction     ... off
Angular grids for H and He will be reduced by one unit

Total number of grid points                  ...   136299
Total number of batches                      ...     1087
Average number of points per batch           ...      125
Average number of grid points per atom       ...     2963
UseSFitting                                  ... on
Grids setup in   1.8 sec
Initializing property integral containers    ... done (  0.0 sec)

SHARK setup successfully completed in   2.5 seconds

Maximum memory used throughout the entire STARTUP-calculation: 103.8 MB


           ************************************************************
           *        Program running with 16 parallel MPI-processes    *
           *              working on a common directory               *
           ************************************************************
Occupation numbers will be reassigned to an Aufbau configuration
             **** ENERGY FILE WAS UPDATED (conjugate_row2_A2_H4.en.tmp) ****
Finished Guess after   0.8 sec
Maximum memory used throughout the entire GUESS-calculation: 99.0 MB


           ************************************************************
           *        Program running with 16 parallel MPI-processes    *
           *              working on a common directory               *
           ************************************************************
----------------------------------------D-I-I-S--------------------------------------------
Iteration    Energy (Eh)           Delta-E    RMSDP     MaxDP     DIISErr   Damp  Time(sec)
-------------------------------------------------------------------------------------------
               ***  Starting incremental Fock matrix formation  ***
    1    -1259.3292207536451315     0.00e+00  7.42e-04  9.39e-03  7.64e-02  0.700   6.7
    2    -1259.3489239492041634    -1.97e-02  6.73e-04  8.95e-03  6.06e-02  0.700   3.6
                               ***Turning on AO-DIIS***
    3    -1259.3647028554823919    -1.58e-02  5.39e-04  7.09e-03  4.57e-02  0.700   3.3
    4    -1259.3764386819548236    -1.17e-02  1.35e-03  1.73e-02  3.33e-02  0.000   3.2
                              *** Initializing SOSCF ***
---------------------------------------S-O-S-C-F--------------------------------------
Iteration    Energy (Eh)           Delta-E    RMSDP     MaxDP     MaxGrad    Time(sec)
--------------------------------------------------------------------------------------
    5    -1259.4060494141331219    -2.96e-02  9.88e-05  1.76e-03  1.92e-03     3.7
               *** Restarting incremental Fock matrix formation ***
    6    -1259.4061392791290928    -8.99e-05  9.46e-05  2.66e-03  4.28e-04     6.5
    7    -1259.4061518303292360    -1.26e-05  8.28e-05  4.29e-03  4.22e-04     4.5
    8    -1259.4061552078114801    -3.38e-06  4.82e-05  1.84e-03  2.81e-04     4.3
    9    -1259.4061613050189408    -6.10e-06  1.80e-05  1.31e-03  8.24e-05     4.2
   10    -1259.4061608747570062     4.30e-07  1.27e-05  8.85e-04  1.39e-04     3.4
   11    -1259.4061615446839824    -6.70e-07  4.88e-06  2.87e-04  1.19e-05     3.3
   12    -1259.4061615317855285     1.29e-08  2.63e-06  1.18e-04  1.98e-05     2.9
   13    -1259.4061615720079317    -4.02e-08  5.20e-06  1.17e-04  3.05e-06     2.7
   14    -1259.4061615455743777     2.64e-08  1.78e-06  7.03e-05  6.00e-06     2.5
   15    -1259.4061615909558896    -4.54e-08  4.60e-06  1.23e-04  5.89e-07     2.1
                  *** Gradient check signals convergence ***

               *****************************************************
               *                     SUCCESS                       *
               *           SCF CONVERGED AFTER  15 CYCLES          *
               *****************************************************

Recomputing exchange energy using gridx3       ... done (   10.822 sec)
Old exchange energy                            :    -33.370189707 Eh
New exchange energy                            :    -33.370191187 Eh
Exchange energy change after final integration :     -0.000001480 Eh
Total energy after final integration           :  -1259.406163094 Eh
             **** ENERGY FILE WAS UPDATED (conjugate_row2_A2_H4.en.tmp) ****

----------------
TOTAL SCF ENERGY
----------------

Total Energy       :      -1259.40616309354596 Eh          -34270.18396 eV

Components:
Nuclear Repulsion  :       2402.53466636783287 Eh           65376.29194 eV
Electronic Energy  :      -3661.94082798171303 Eh          -99646.47586 eV
One Electron Energy:      -6486.57311213022513 Eh         -176508.62791 eV
Two Electron Energy:       2824.63228414851210 Eh           76862.15205 eV

Virial components:
Potential Energy   :      -2513.36013941082410 Eh          -68392.00638 eV
Kinetic Energy     :       1253.95397631727815 Eh           34121.82242 eV
Virial Ratio       :          2.00434799592269

DFT components:
N(Alpha)           :       97.999952898677 electrons
N(Beta)            :       97.999952898677 electrons
N(Total)           :      195.999905797354 electrons
E(X)               :     -132.669029544384 Eh       
E(C)               :       -7.941655091148 Eh       
E(XC)              :     -140.610684635532 Eh       

---------------
SCF CONVERGENCE
---------------

  Last Energy change         ...    4.5382e-08  Tolerance :   1.0000e-08
  Last MAX-Density change    ...    1.2342e-04  Tolerance :   1.0000e-07
  Last RMS-Density change    ...    4.5992e-06  Tolerance :   5.0000e-09
  Last DIIS Error            ...    1.9179e-03  Tolerance :   5.0000e-07
  Last Orbital Gradient      ...    5.8924e-07  Tolerance :   1.0000e-05
  Last Orbital Rotation      ...    1.9630e-06  Tolerance :   1.0000e-05


Total SCF time: 0 days 0 hours 1 min 10 sec 
Finished LeanSCF after  70.5 sec

Maximum memory used throughout the entire LEANSCF-calculation: 138.3 MB

-------------------------   --------------------
FINAL SINGLE POINT ENERGY     -1259.406163093546
-------------------------   --------------------



           ************************************************************
           *        Program running with 16 parallel MPI-processes    *
           *              working on a common directory               *
           ************************************************************
------------------------------------------------------------------------------
                         ORCA SCF GRADIENT CALCULATION
------------------------------------------------------------------------------

Nuc. rep. gradient        (SHARK) ... done (  0.0 sec)
HCore & Overlap gradient  (SHARK) ... done (  0.3 sec)
Split-RIJ-J gradient      (SHARK) ... done (  1.8 sec)
COSX-gradient                     ... done ( 18.5 sec)
XC gradient                       ... done (  2.4 sec)

------------------
CARTESIAN GRADIENT
------------------

   1   O   :   -0.000402936    0.002117986   -0.001395992
   2   C   :    0.000780967   -0.005125014    0.003859123
   3   N   :   -0.001150445   -0.000752211   -0.000870054
   4   C   :   -0.000058731    0.005761041   -0.003068856
   5   O   :    0.000237040   -0.002339677    0.001059000
   6   C   :   -0.001319857    0.000788508    0.002397619
   7   C   :   -0.000209824    0.000561785   -0.000923381
   8   C   :   -0.000401412   -0.000857354   -0.001392050
   9   C   :   -0.004617968    0.003912299   -0.001607280
  10   O   :    0.000126942   -0.001073176    0.001115252
  11   N   :    0.006269227   -0.000525966   -0.001657825
  12   C   :    0.000502178    0.000068643   -0.000080902
  13   C   :    0.000962699   -0.002918329    0.000792863
  14   C   :   -0.000688749    0.002155570   -0.000573656
  15   C   :    0.000173931   -0.000037253   -0.000023094
  16   C   :    0.001477974   -0.000092724   -0.000472793
  17   C   :    0.000244951    0.000659658    0.000140231
  18   C   :   -0.000354936   -0.000393550   -0.000169854
  19   C   :    0.000332538   -0.000021846   -0.000089776
  20   C   :   -0.000130486    0.000428850    0.000324307
  21   C   :   -0.000044299   -0.000657972   -0.000187925
  22   C   :   -0.000694530   -0.001947933    0.000918981
  23   C   :    0.000602895    0.002597969   -0.001327610
  24   C   :   -0.003495128   -0.003798033    0.003744941
  25   O   :   -0.000295400    0.001355924   -0.000631768
  26   C   :   -0.000324132    0.002842732    0.000141357
  27   C   :   -0.000434965   -0.001267482    0.000161750
  28   C   :    0.002053956   -0.000360461   -0.001949777
  29   H   :   -0.000057699   -0.000029795    0.000065798
  30   H   :    0.000131263   -0.000799365    0.000298063
  31   H   :    0.000169988   -0.000287311    0.000334859
  32   H   :    0.000602879    0.000028079    0.000255931
  33   H   :    0.000463210   -0.000512830    0.000769549
  34   H   :   -0.000007300    0.000616637    0.000083322
  35   H   :    0.000059468   -0.000204899   -0.000062654
  36   H   :   -0.000557348   -0.000154623    0.000039167
  37   H   :    0.000013963    0.000050165    0.000077655
  38   H   :   -0.000012614    0.000001867    0.000005890
  39   H   :   -0.000045826   -0.000048420   -0.000079368
  40   H   :   -0.000422012    0.000201925    0.000249340
  41   H   :    0.000147317    0.000189280   -0.000015683
  42   H   :   -0.000130786   -0.000503341   -0.000125128
  43   H   :    0.000630240   -0.000956788    0.000321510
  44   H   :   -0.000030276    0.000350171   -0.000212467
  45   H   :    0.000153052    0.000231580    0.000184941
  46   H   :   -0.000249019    0.000745683   -0.000423554

Difference to translation invariance:
           :   -0.0000000000   -0.0000000000   -0.0000000000

Difference to rotation invariance:
           :    0.0003055855    0.0002387240    0.0000718914

Norm of the Cartesian gradient     ...    0.0172596423
RMS gradient                       ...    0.0014692383
MAX gradient                       ...    0.0062692266

-------
TIMINGS
-------

Total SCF gradient time     ....       22.951 sec

Densities                   ....       0.007 sec  (  0.0%)
One electron gradient       ....       0.320 sec  (  1.4%)
RI-J Coulomb gradient       ....       1.764 sec  (  7.7%)
COSX gradient               ....      18.497 sec  ( 80.6%)
XC gradient                 ....       2.362 sec  ( 10.3%)

Maximum memory used throughout the entire SCFGRAD-calculation: 163.4 MB
------------------------------------------------------------------------------
                         ORCA GEOMETRY RELAXATION STEP
------------------------------------------------------------------------------

Reading the OPT-File                    .... done
Getting information on internals        .... done
Copying old internal coords+grads       .... done
Making the new internal coordinates     .... (2022 redundants) done
Validating the new internal coordinates .... (2022 redundants) done
Calculating the B-matrix                .... done
Calculating the G,G- and P matrices     .... done
Transforming gradient to internals      .... done
Projecting the internal gradient        .... done
Number of atoms                         ....  46
Number of internal coordinates          .... 268
Current Energy                          .... -1259.406163094 Eh
Current gradient norm                   ....     0.017259642 Eh/bohr
Maximum allowed component of the step   ....  0.300
Current trust radius                    ....  0.450
Updating the Hessian (BFGS)             .... done
Forming the augmented Hessian           .... done
Diagonalizing the augmented Hessian     .... done
Last element of RFO vector              ....  0.972139320
Lowest eigenvalues of augmented Hessian:
 -0.000631587  0.005425529  0.015037176  0.015566472  0.016050867
Length of the computed step             ....  0.241121613
The final length of the internal step   ....  0.241121613
Converting the step to Cartesian space:
 Initial RMS(Int)=    0.0147288467
Transforming coordinates:
 Iter   0:  RMS(Cart)=    0.1033666214 RMS(Int)=    0.6646479188
 Iter   5:  RMS(Cart)=    0.0000001157 RMS(Int)=    0.0000000489
done
Storing new coordinates                 .... done
The predicted energy change is          ....    -0.000334154
Previously predicted energy change      ....    -0.001137589
Actually observed energy change         ....    -0.001127987
Ratio of predicted to observed change   ....     0.991560010
New trust radius                        ....     0.675000000

                                .--------------------.
          ----------------------|Geometry convergence|-------------------------
          Item                value                   Tolerance       Converged
          ---------------------------------------------------------------------
          Energy change      -0.0011279875            0.0000050000      NO
          RMS gradient        0.0006675738            0.0001000000      NO
          MAX gradient        0.0043625798            0.0003000000      NO
          RMS step            0.0147288467            0.0020000000      NO
          MAX step            0.1110653006            0.0040000000      NO
          -------------------------------------------------------------------------
          ........................................................
          Max(Bonds)      0.0051      Max(Angles)    0.58
          Max(Dihed)        6.36      Max(Improp)    0.00
          ---------------------------------------------------------------------

The optimization has not yet converged - more geometry cycles are needed


    ---------------------------------------------------------------------------
                         Redundant Internal Coordinates
                            (Angstroem and degrees)

        Definition                    Value    dE/dq     Step     New-Value
    ----------------------------------------------------------------------------
     1. B(C   1,O   0)                1.2012 -0.002298  0.0013    1.2025   
     2. B(N   2,C   1)                1.3991  0.002114 -0.0025    1.3966   
     3. B(C   3,N   2)                1.4023  0.002288 -0.0026    1.3998   
     4. B(O   4,C   3)                1.2005 -0.002303  0.0013    1.2017   
     5. B(C   5,C   3)                1.5234  0.000794 -0.0012    1.5222   
     6. B(C   6,C   5)                1.5159  0.000028 -0.0005    1.5154   
     7. B(C   7,C   6)                1.5388 -0.000248  0.0013    1.5401   
     8. B(C   8,C   7)                1.5246 -0.000273 -0.0001    1.5245   
     9. B(O   9,C   8)                1.2024 -0.001478  0.0011    1.2035   
    10. B(N  10,C   8)                1.4145  0.004363 -0.0051    1.4094   
    11. B(C  11,N  10)                1.4308  0.001531 -0.0039    1.4269   
    12. B(C  12,C  11)                1.3955  0.001444 -0.0020    1.3936   
    13. B(C  13,C  12)                1.3861 -0.000213  0.0005    1.3865   
    14. B(C  14,C  13)                1.3980 -0.000621  0.0013    1.3993   
    15. B(C  15,C  14)                1.4828  0.000528 -0.0009    1.4819   
    16. B(C  16,C  15)                1.3998 -0.000303  0.0008    1.4006   
    17. B(C  17,C  16)                1.3887 -0.000110  0.0002    1.3889   
    18. B(C  18,C  17)                1.3908  0.000171 -0.0001    1.3907   
    19. B(C  19,C  18)                1.3908  0.000188 -0.0001    1.3907   
    20. B(C  20,C  19)                1.3887 -0.000099  0.0002    1.3889   
    21. B(C  20,C  15)                1.3998 -0.000303  0.0008    1.4006   
    22. B(C  21,C  14)                1.3982 -0.000578  0.0012    1.3994   
    23. B(C  22,C  21)                1.3858 -0.000279  0.0006    1.3864   
    24. B(C  22,C  11)                1.3956  0.001394 -0.0019    1.3936   
    25. B(C  23,N  10)                1.4163  0.004352 -0.0047    1.4116   
    26. B(O  24,C  23)                1.2022 -0.001341  0.0009    1.2031   
    27. B(C  25,C  23)                1.5197 -0.000100 -0.0004    1.5193   
    28. B(C  25,C   7)                1.5443 -0.000330  0.0003    1.5446   
    29. B(C  26,C  25)                1.5593  0.000599  0.0001    1.5594   
    30. B(C  27,C   5)                1.5307  0.000409 -0.0015    1.5292   
    31. B(C  27,C   1)                1.5247  0.000885 -0.0012    1.5235   
    32. B(C  27,C  26)                1.5147 -0.000071 -0.0007    1.5140   
    33. B(H  28,N   2)                1.0106  0.000027 -0.0001    1.0105   
    34. B(H  29,C   5)                1.1003  0.000137  0.0002    1.1005   
    35. B(H  30,C   6)                1.0929 -0.000013  0.0001    1.0930   
    36. B(H  31,C   6)                1.0899 -0.000059  0.0003    1.0901   
    37. B(H  32,C   7)                1.0966  0.000162  0.0001    1.0967   
    38. B(H  33,C  12)                1.0786 -0.000460  0.0018    1.0804   
    39. B(H  34,C  13)                1.0829  0.000203 -0.0001    1.0827   
    40. B(H  35,C  16)                1.0828  0.000060 -0.0000    1.0827   
    41. B(H  36,C  17)                1.0832  0.000061  0.0001    1.0833   
    42. B(H  37,C  18)                1.0827 -0.000014  0.0001    1.0828   
    43. B(H  38,C  19)                1.0832  0.000065  0.0001    1.0833   
    44. B(H  39,C  20)                1.0828  0.000074 -0.0001    1.0827   
    45. B(H  40,C  21)                1.0829  0.000226 -0.0001    1.0827   
    46. B(H  41,C  22)                1.0787 -0.000370  0.0016    1.0803   
    47. B(H  42,C  25)                1.0903  0.000012  0.0003    1.0906   
    48. B(H  43,C  26)                1.0942  0.000018  0.0001    1.0943   
    49. B(H  44,C  26)                1.0892 -0.000044  0.0001    1.0893   
    50. B(H  45,C  27)                1.1006  0.000090  0.0002    1.1008   
    51. A(O   0,C   1,N   2)          125.36 -0.000832    0.05    125.41   
    52. A(O   0,C   1,C  27)          129.78  0.001759   -0.17    129.62   
    53. A(N   2,C   1,C  27)          104.80 -0.000923    0.11    104.91   
    54. A(C   1,N   2,H  28)          122.49 -0.000380    0.06    122.55   
    55. A(C   1,N   2,C   3)          115.03  0.000660   -0.09    114.94   
    56. A(C   3,N   2,H  28)          122.48 -0.000280    0.02    122.51   
    57. A(N   2,C   3,C   5)          104.77 -0.000977    0.14    104.91   
    58. A(O   4,C   3,C   5)          130.05  0.001812   -0.17    129.88   
    59. A(N   2,C   3,O   4)          125.12 -0.000829    0.04    125.16   
    60. A(C   3,C   5,C  27)          103.59  0.000755   -0.03    103.56   
    61. A(C   3,C   5,H  29)          103.80 -0.000112   -0.08    103.72   
    62. A(C   6,C   5,H  29)          108.47  0.000255   -0.01    108.46   
    63. A(C  27,C   5,H  29)          107.22 -0.000713    0.29    107.51   
    64. A(C   3,C   5,C   6)          121.22 -0.000275   -0.02    121.20   
    65. A(C   6,C   5,C  27)          111.57 -0.000009   -0.11    111.46   
    66. A(C   5,C   6,H  30)          109.84 -0.000098    0.02    109.86   
    67. A(C   5,C   6,C   7)          109.16  0.000030    0.12    109.28   
    68. A(C   7,C   6,H  31)          108.81 -0.000882   -0.04    108.77   
    69. A(C   5,C   6,H  31)          111.95  0.000558   -0.13    111.82   
    70. A(H  30,C   6,H  31)          107.74  0.000361   -0.05    107.69   
    71. A(C   7,C   6,H  30)          109.30  0.000019    0.07    109.37   
    72. A(C   8,C   7,H  32)          103.95  0.000205   -0.21    103.75   
    73. A(C   6,C   7,H  32)          108.12  0.000529   -0.13    107.99   
    74. A(C   6,C   7,C   8)          114.12 -0.000786    0.02    114.14   
    75. A(C   8,C   7,C  25)          103.24  0.000629    0.15    103.39   
    76. A(C   6,C   7,C  25)          119.25  0.000371   -0.05    119.20   
    77. A(C  25,C   7,H  32)          106.92 -0.001010    0.20    107.12   
    78. A(O   9,C   8,N  10)          125.40 -0.000812   -0.03    125.37   
    79. A(C   7,C   8,O   9)          126.79  0.000181    0.17    126.96   
    80. A(C   7,C   8,N  10)          107.78  0.000623   -0.15    107.63   
    81. A(C   8,N  10,C  23)          111.04 -0.002460    0.58    111.62   
    82. A(C   8,N  10,C  11)          124.35  0.000833   -0.21    124.14   
    83. A(C  11,N  10,C  23)          124.60  0.001627   -0.37    124.23   
    84. A(C  12,C  11,C  22)          119.56 -0.000092    0.19    119.75   
    85. A(N  10,C  11,C  22)          120.16 -0.000149   -0.05    120.11   
    86. A(N  10,C  11,C  12)          120.28  0.000241   -0.14    120.14   
    87. A(C  13,C  12,H  33)          120.09  0.000727    0.18    120.27   
    88. A(C  11,C  12,H  33)          120.17  0.000001   -0.18    119.99   
    89. A(C  11,C  12,C  13)          119.72 -0.000729    0.01    119.72   
    90. A(C  12,C  13,C  14)          121.83  0.000965   -0.16    121.67   
    91. A(C  14,C  13,H  34)          119.55 -0.000472    0.03    119.58   
    92. A(C  12,C  13,H  34)          118.60 -0.000493    0.13    118.73   
    93. A(C  15,C  14,C  21)          121.34  0.000228   -0.07    121.27   
    94. A(C  13,C  14,C  21)          117.33 -0.000409    0.12    117.45   
    95. A(C  13,C  14,C  15)          121.33  0.000181   -0.05    121.27   
    96. A(C  16,C  15,C  20)          118.26  0.000708   -0.13    118.13   
    97. A(C  14,C  15,C  20)          120.86 -0.000353    0.07    120.92   
    98. A(C  14,C  15,C  16)          120.88 -0.000355    0.06    120.95   
    99. A(C  15,C  16,C  17)          120.85 -0.000392    0.07    120.92   
   100. A(C  17,C  16,H  35)          119.79  0.000784   -0.10    119.69   
   101. A(C  15,C  16,H  35)          119.34 -0.000392    0.03    119.37   
   102. A(C  16,C  17,C  18)          120.30  0.000089    0.00    120.30   
   103. A(C  18,C  17,H  36)          120.06  0.000007   -0.01    120.05   
   104. A(C  16,C  17,H  36)          119.64 -0.000096    0.01    119.65   
   105. A(C  17,C  18,C  19)          119.44 -0.000093   -0.00    119.44   
   106. A(C  19,C  18,H  37)          120.28  0.000047    0.00    120.28   
   107. A(C  17,C  18,H  37)          120.28  0.000046    0.00    120.28   
   108. A(C  18,C  19,C  20)          120.29  0.000101    0.00    120.29   
   109. A(C  20,C  19,H  38)          119.64 -0.000107    0.01    119.65   
   110. A(C  18,C  19,H  38)          120.06  0.000006   -0.01    120.05   
   111. A(C  15,C  20,C  19)          120.85 -0.000412    0.07    120.92   
   112. A(C  19,C  20,H  39)          119.79  0.000743   -0.09    119.70   
   113. A(C  15,C  20,H  39)          119.34 -0.000330    0.02    119.36   
   114. A(C  14,C  21,C  22)          121.80  0.000941   -0.15    121.65   
   115. A(C  22,C  21,H  40)          118.62 -0.000446    0.12    118.74   
   116. A(C  14,C  21,H  40)          119.56 -0.000496    0.03    119.59   
   117. A(C  11,C  22,C  21)          119.75 -0.000676   -0.00    119.75   
   118. A(C  21,C  22,H  41)          120.02  0.000610    0.20    120.22   
   119. A(C  11,C  22,H  41)          120.20  0.000064   -0.20    120.01   
   120. A(O  24,C  23,C  25)          126.54  0.000173    0.28    126.82   
   121. A(N  10,C  23,C  25)          108.06  0.000470   -0.20    107.86   
   122. A(N  10,C  23,O  24)          125.37 -0.000627   -0.11    125.26   
   123. A(C  26,C  25,H  42)          108.48 -0.000139   -0.07    108.40   
   124. A(C  23,C  25,H  42)          108.29 -0.000619    0.19    108.48   
   125. A(C   7,C  25,H  42)          112.66  0.000532   -0.20    112.46   
   126. A(C  23,C  25,C  26)          108.54 -0.000388   -0.03    108.51   
   127. A(C   7,C  25,C  26)          115.24 -0.000213    0.07    115.31   
   128. A(C   7,C  25,C  23)          103.27  0.000782    0.07    103.34   
   129. A(C  25,C  26,C  27)          108.30  0.000033    0.02    108.32   
   130. A(C  27,C  26,H  44)          112.63  0.000257   -0.02    112.61   
   131. A(C  25,C  26,H  44)          109.18 -0.000346    0.04    109.22   
   132. A(C  27,C  26,H  43)          109.26 -0.000142   -0.01    109.25   
   133. A(C  25,C  26,H  43)          110.26  0.000016   -0.08    110.18   
   134. A(H  43,C  26,H  44)          107.20  0.000180    0.04    107.24   
   135. A(C   5,C  27,C  26)          111.29  0.000130   -0.14    111.15   
   136. A(C   1,C  27,C  26)          121.02 -0.000406    0.03    121.05   
   137. A(C  26,C  27,H  45)          108.69  0.000349    0.02    108.71   
   138. A(C   1,C  27,C   5)          103.66  0.000678   -0.05    103.62   
   139. A(C   5,C  27,H  45)          107.34 -0.001076    0.31    107.65   
   140. A(C   1,C  27,H  45)          103.92  0.000186   -0.14    103.79   
   141. D(C   3,N   2,C   1,C  27)      8.87 -0.000211    0.18      9.05   
   142. D(H  28,N   2,C   1,C  27)   -170.71 -0.000166   -0.09   -170.80   
   143. D(C   3,N   2,C   1,O   0)   -173.73 -0.000078   -0.02   -173.75   
   144. D(H  28,N   2,C   1,O   0)      6.69 -0.000032   -0.29      6.40   
   145. D(C   5,C   3,N   2,C   1)      9.49 -0.000203   -0.26      9.24   
   146. D(O   4,C   3,N   2,H  28)      6.58 -0.000062    0.13      6.72   
   147. D(C   5,C   3,N   2,H  28)   -170.93 -0.000249    0.02   -170.91   
   148. D(O   4,C   3,N   2,C   1)   -173.00 -0.000016   -0.14   -173.14   
   149. D(C  27,C   5,C   3,O   4)    159.17  0.000260    0.13    159.29   
   150. D(C   6,C   5,C   3,O   4)     33.09 -0.000223    0.30     33.40   
   151. D(C  27,C   5,C   3,N   2)    -23.49  0.000362    0.23    -23.27   
   152. D(H  29,C   5,C   3,N   2)     88.40 -0.000182    0.50     88.91   
   153. D(C   6,C   5,C   3,N   2)   -149.57 -0.000121    0.40   -149.16   
   154. D(C   7,C   6,C   5,C  27)     53.16 -0.000300    0.05     53.21   
   155. D(C   7,C   6,C   5,H  29)    -64.72  0.000421   -0.23    -64.96   
   156. D(C   7,C   6,C   5,C   3)    175.51  0.000550   -0.10    175.41   
   157. D(H  30,C   6,C   5,H  29)    175.45  0.000439   -0.40    175.05   
   158. D(H  30,C   6,C   5,C   3)     55.68  0.000568   -0.27     55.41   
   159. D(H  30,C   6,C   5,C  27)    -66.67 -0.000281   -0.12    -66.79   
   160. D(C  25,C   7,C   6,H  30)     81.74 -0.000155    0.62     82.36   
   161. D(C  25,C   7,C   6,C   5)    -38.42 -0.000065    0.48    -37.94   
   162. D(C   8,C   7,C   6,H  31)    -38.28  0.000282    0.79    -37.49   
   163. D(C   8,C   7,C   6,C   5)     84.16  0.000431    0.68     84.84   
   164. D(C  25,C   7,C   6,H  31)   -160.85 -0.000214    0.59   -160.27   
   165. D(C   8,C   7,C   6,H  30)   -155.69  0.000341    0.82   -154.86   
   166. D(N  10,C   8,C   7,C  25)    -21.72 -0.000099    0.98    -20.74   
   167. D(O   9,C   8,C   7,H  32)    -88.34 -0.000619    1.08    -87.26   
   168. D(O   9,C   8,C   7,C   6)     29.21 -0.000253    0.80     30.01   
   169. D(O   9,C   8,C   7,C  25)    160.16  0.000182    0.88    161.03   
   170. D(N  10,C   8,C   7,C   6)   -152.67 -0.000533    0.91   -151.77   
   171. D(C  11,N  10,C   8,C   7)   -171.10  0.000122   -0.77   -171.87   
   172. D(C  23,N  10,C   8,O   9)   -172.66 -0.000183   -0.61   -173.27   
   173. D(C  23,N  10,C   8,C   7)      9.18  0.000069   -0.79      8.40   
   174. D(C  11,N  10,C   8,O   9)      7.05 -0.000131   -0.59      6.46   
   175. D(C  22,C  11,N  10,C  23)   -144.35 -0.000723    6.36   -137.98   
   176. D(C  22,C  11,N  10,C   8)     35.97 -0.000771    6.34     42.31   
   177. D(C  12,C  11,N  10,C  23)     35.74 -0.000666    6.18     41.92   
   178. D(C  12,C  11,N  10,C   8)   -143.94 -0.000714    6.16   -137.79   
   179. D(H  33,C  12,C  11,C  22)    178.35 -0.000056   -0.00    178.35   
   180. D(H  33,C  12,C  11,N  10)     -1.73 -0.000112    0.16     -1.57   
   181. D(C  13,C  12,C  11,C  22)     -0.03 -0.000002    0.03     -0.00   
   182. D(C  13,C  12,C  11,N  10)    179.89 -0.000059    0.19    180.08   
   183. D(H  34,C  13,C  12,H  33)      0.13  0.000095   -0.17     -0.04   
   184. D(C  14,C  13,C  12,H  33)   -178.30  0.000140   -0.20   -178.50   
   185. D(C  14,C  13,C  12,C  11)      0.08  0.000075   -0.24     -0.15   
   186. D(H  34,C  13,C  12,C  11)    178.51  0.000030   -0.20    178.31   
   187. D(C  21,C  14,C  13,H  34)   -178.47 -0.000021    0.16   -178.31   
   188. D(C  21,C  14,C  13,C  12)     -0.05 -0.000067    0.19      0.14   
   189. D(C  15,C  14,C  13,H  34)      1.58 -0.000021    0.15      1.73   
   190. D(C  15,C  14,C  13,C  12)    179.99 -0.000066    0.19    180.18   
   191. D(C  20,C  15,C  14,C  21)   -142.50 -0.000161   -1.06   -143.57   
   192. D(C  20,C  15,C  14,C  13)     37.45 -0.000162   -1.06     36.39   
   193. D(C  16,C  15,C  14,C  21)     37.49 -0.000146   -1.12     36.37   
   194. D(C  16,C  15,C  14,C  13)   -142.56 -0.000147   -1.11   -143.67   
   195. D(H  35,C  16,C  15,C  20)   -178.49 -0.000017    0.13   -178.36   
   196. D(H  35,C  16,C  15,C  14)      1.52 -0.000032    0.18      1.70   
   197. D(C  17,C  16,C  15,C  20)     -0.06 -0.000008    0.02     -0.04   
   198. D(C  17,C  16,C  15,C  14)    179.95 -0.000022    0.07    180.02   
   199. D(C  18,C  17,C  16,C  15)      0.11  0.000008   -0.02      0.09   
   200. D(C  18,C  17,C  16,H  35)    178.53 -0.000001   -0.13    178.40   
   201. D(H  36,C  17,C  16,H  35)     -0.94  0.000018   -0.14     -1.08   
   202. D(H  36,C  17,C  16,C  15)   -179.36  0.000027   -0.03   -179.39   
   203. D(C  19,C  18,C  17,C  16)     -0.05  0.000001   -0.00     -0.05   
   204. D(H  37,C  18,C  17,H  36)     -0.59 -0.000022    0.02     -0.57   
   205. D(H  37,C  18,C  17,C  16)    179.95 -0.000002    0.00    179.95   
   206. D(C  19,C  18,C  17,H  36)    179.42 -0.000019    0.01    179.43   
   207. D(H  38,C  19,C  18,H  37)     -0.59 -0.000023    0.02     -0.57   
   208. D(H  38,C  19,C  18,C  17)    179.40 -0.000026    0.03    179.42   
   209. D(C  20,C  19,C  18,H  37)    179.95 -0.000007    0.02    179.96   
   210. D(C  20,C  19,C  18,C  17)     -0.06 -0.000010    0.02     -0.04   
   211. D(H  39,C  20,C  19,H  38)     -0.92  0.000026   -0.16     -1.07   
   212. D(H  39,C  20,C  19,C  18)    178.54  0.000010   -0.15    178.39   
   213. D(C  15,C  20,C  19,H  38)   -179.35  0.000025   -0.03   -179.38   
   214. D(C  15,C  20,C  19,C  18)      0.11  0.000009   -0.02      0.09   
   215. D(H  39,C  20,C  15,C  16)   -178.49 -0.000018    0.13   -178.36   
   216. D(H  39,C  20,C  15,C  14)      1.50 -0.000004    0.08      1.58   
   217. D(C  19,C  20,C  15,C  16)     -0.05 -0.000001    0.00     -0.05   
   218. D(C  19,C  20,C  15,C  14)    179.94  0.000014   -0.05    179.89   
   219. D(H  40,C  21,C  14,C  15)      1.53  0.000015    0.06      1.60   
   220. D(H  40,C  21,C  14,C  13)   -178.42  0.000015    0.06   -178.37   
   221. D(C  22,C  21,C  14,C  15)    179.92 -0.000015    0.06    179.98   
   222. D(C  22,C  21,C  14,C  13)     -0.04 -0.000015    0.06      0.02   
   223. D(H  41,C  22,C  21,H  40)      0.11  0.000125   -0.27     -0.17   
   224. D(H  41,C  22,C  21,C  14)   -178.29  0.000156   -0.27   -178.57   
   225. D(C  11,C  22,C  21,H  40)    178.49  0.000053   -0.27    178.22   
   226. D(C  11,C  22,C  21,C  14)      0.09  0.000084   -0.27     -0.18   
   227. D(H  41,C  22,C  11,C  12)    178.32 -0.000137    0.23    178.56   
   228. D(H  41,C  22,C  11,N  10)     -1.59 -0.000081    0.07     -1.52   
   229. D(C  21,C  22,C  11,C  12)     -0.06 -0.000074    0.22      0.17   
   230. D(C  21,C  22,C  11,N  10)   -179.97 -0.000018    0.06   -179.91   
   231. D(C  25,C  23,N  10,C  11)   -171.93 -0.000258    0.25   -171.68   
   232. D(C  25,C  23,N  10,C   8)      7.79 -0.000209    0.27      8.06   
   233. D(O  24,C  23,N  10,C  11)      6.01  0.000199   -1.35      4.66   
   234. D(O  24,C  23,N  10,C   8)   -174.27  0.000249   -1.33   -175.60   
   235. D(H  42,C  25,C  23,N  10)   -140.59 -0.000648    0.48   -140.11   
   236. D(C  26,C  25,C  23,O  24)    -76.07 -0.000373    1.88    -74.19   
   237. D(C   7,C  25,C  23,O  24)    161.16 -0.000363    1.78    162.94   
   238. D(C   7,C  25,C  23,N  10)    -20.93  0.000081    0.36    -20.57   
   239. D(C  26,C  25,C   7,H  32)    157.68  0.000132   -0.69    156.99   
   240. D(C  26,C  25,C   7,C   8)    -93.02  0.000254   -0.79    -93.80   
   241. D(C  26,C  25,C   7,C   6)     34.79  0.000018   -0.65     34.14   
   242. D(C  26,C  25,C  23,N  10)    101.84  0.000071    0.46    102.30   
   243. D(C  23,C  25,C   7,H  32)    -84.12  0.000064   -0.65    -84.78   
   244. D(C  23,C  25,C   7,C   8)     25.18  0.000186   -0.75     24.43   
   245. D(C  23,C  25,C   7,C   6)    152.99 -0.000050   -0.62    152.37   
   246. D(H  43,C  26,C  25,H  42)   -156.11  0.000420   -0.12   -156.23   
   247. D(H  43,C  26,C  25,C  23)    -38.65 -0.000607    0.06    -38.59   
   248. D(H  43,C  26,C  25,C   7)     76.55 -0.000016    0.16     76.71   
   249. D(C  27,C  26,C  25,H  42)     84.39  0.000563   -0.08     84.31   
   250. D(C  27,C  26,C  25,C  23)   -158.16 -0.000464    0.10   -158.06   
   251. D(C  27,C  26,C  25,C   7)    -42.95  0.000128    0.20    -42.75   
   252. D(C   5,C  27,C  26,C  25)     59.43 -0.000195    0.28     59.70   
   253. D(C   1,C  27,C  26,H  44)    -57.71  0.000314    0.17    -57.54   
   254. D(C   1,C  27,C  26,H  43)     61.31  0.000607    0.20     61.51   
   255. D(C  26,C  27,C   5,H  29)     50.59  0.000167   -0.27     50.32   
   256. D(C  26,C  27,C   5,C   6)    -68.04  0.000304   -0.37    -68.41   
   257. D(C  26,C  27,C   5,C   3)    159.97  0.000094   -0.27    159.70   
   258. D(C   1,C  27,C   5,H  29)    -81.01  0.000094   -0.20    -81.20   
   259. D(C   1,C  27,C   5,C   6)    160.36  0.000231   -0.30    160.06   
   260. D(C   1,C  27,C   5,C   3)     28.37  0.000021   -0.20     28.18   
   261. D(H  45,C  27,C   1,O   0)    -88.30 -0.000525    0.47    -87.84   
   262. D(C   1,C  27,C  26,C  25)   -178.56  0.000563    0.12   -178.44   
   263. D(C  26,C  27,C   1,N   2)   -148.76 -0.000125    0.18   -148.58   
   264. D(C  26,C  27,C   1,O   0)     34.00 -0.000167    0.39     34.39   
   265. D(C   5,C  27,C   1,N   2)    -23.16  0.000377   -0.02    -23.18   
   266. D(C   5,C  27,C  26,H  43)    -60.71 -0.000151    0.36    -60.34   
   267. D(C   5,C  27,C   1,O   0)    159.60  0.000335    0.19    159.79   
   268. D(C   5,C  27,C  26,H  44)   -179.73 -0.000444    0.33   -179.39   
    ----------------------------------------------------------------------------

Geometry step timings:
Preparation and reading OPT file:      0.000 s ( 0.189 %)
Internal coordinates            :      0.000 s ( 0.313 %)
B/P matrices and projection     :      0.007 s (48.490 %)
Hessian update/contruction      :      0.002 s (10.078 %)
Making the step                 :      0.005 s (29.926 %)
Converting the step to Cartesian:      0.001 s ( 3.666 %)
Storing new data                :      0.000 s ( 0.287 %)
Checking convergence            :      0.000 s ( 0.483 %)
Final printing                  :      0.001 s ( 6.562 %)
Total time                      :      0.015 s

Time for energy+gradient        :     98.026 s
Time for complete geometry iter :     98.256 s

         *************************************************************
         *                GEOMETRY OPTIMIZATION CYCLE   6            *
         *************************************************************
---------------------------------
CARTESIAN COORDINATES (ANGSTROEM)
---------------------------------
  O     -5.742498   -3.001577    0.593198
  C     -5.584677   -1.850558    0.283102
  N     -6.321883   -1.164896   -0.684836
  C     -5.865876    0.127814   -0.968211
  O     -6.425985    0.919039   -1.678428
  C     -4.532307    0.240387   -0.242905
  C     -4.041628    1.568648    0.296806
  C     -2.730307    1.348627    1.073893
  C     -1.481055    1.341973    0.200074
  O     -1.314746    1.942344   -0.829616
  N     -0.520440    0.529479    0.835386
  C      0.835994    0.410241    0.408779
  C      1.455287   -0.837950    0.386436
  C      2.774184   -0.943685   -0.028089
  C      3.509436    0.176242   -0.432002
  C      4.917482    0.052499   -0.877241
  C      5.858571    1.044546   -0.574118
  C      7.177960    0.928132   -0.992040
  C      7.586776   -0.181435   -1.724065
  C      6.663418   -1.174318   -2.033387
  C      5.344291   -1.059450   -1.614245
  C      2.864023    1.417475   -0.400235
  C      1.547026    1.542170    0.014546
  C     -1.068132   -0.155032    1.941835
  O     -0.449427   -0.851937    2.702705
  C     -2.569567    0.077586    1.936680
  C     -3.266709   -1.200119    1.376983
  C     -4.636506   -0.809278    0.864142
  H     -7.125353   -1.570235   -1.144539
  H     -3.802422   -0.127223   -0.979966
  H     -4.791838    1.997628    0.965970
  H     -3.859679    2.288104   -0.501733
  H     -2.580608    2.209828    1.736194
  H      0.916261   -1.714161    0.716572
  H      3.248053   -1.917113   -0.012880
  H      5.556778    1.899735    0.017396
  H      7.891012    1.703000   -0.737662
  H      8.615301   -0.271469   -2.050445
  H      6.968908   -2.038313   -2.611070
  H      4.627501   -1.825253   -1.882701
  H      3.391951    2.303155   -0.730669
  H      1.064020    2.508500    0.008057
  H     -2.899755    0.227683    2.965227
  H     -2.680030   -1.620799    0.554564
  H     -3.312772   -1.955679    2.160296
  H     -5.210030   -0.365276    1.692240

----------------------------
CARTESIAN COORDINATES (A.U.)
----------------------------
  NO LB      ZA    FRAG     MASS         X           Y           Z
   0 O     8.0000    0    15.999  -10.851749   -5.672158    1.120981
   1 C     6.0000    0    12.011  -10.553511   -3.497047    0.534984
   2 N     7.0000    0    14.007  -11.946628   -2.201334   -1.294152
   3 C     6.0000    0    12.011  -11.084899    0.241534   -1.829653
   4 O     8.0000    0    15.999  -12.143353    1.736733   -3.171769
   5 C     6.0000    0    12.011   -8.564818    0.454266   -0.459024
   6 C     6.0000    0    12.011   -7.637570    2.964316    0.560882
   7 C     6.0000    0    12.011   -5.159533    2.548536    2.029364
   8 C     6.0000    0    12.011   -2.798789    2.535962    0.378084
   9 O     8.0000    0    15.999   -2.484509    3.670499   -1.567747
  10 N     7.0000    0    14.007   -0.983489    1.000571    1.578651
  11 C     6.0000    0    12.011    1.579800    0.775242    0.772481
  12 C     6.0000    0    12.011    2.750095   -1.583496    0.730258
  13 C     6.0000    0    12.011    5.242448   -1.783306   -0.053080
  14 C     6.0000    0    12.011    6.631873    0.333050   -0.816365
  15 C     6.0000    0    12.011    9.292694    0.099209   -1.657746
  16 C     6.0000    0    12.011   11.071094    1.973906   -1.084925
  17 C     6.0000    0    12.011   13.564378    1.753914   -1.874684
  18 C     6.0000    0    12.011   14.336928   -0.342862   -3.258011
  19 C     6.0000    0    12.011   12.592035   -2.219139   -3.842545
  20 C     6.0000    0    12.011   10.099246   -2.002070   -3.050481
  21 C     6.0000    0    12.011    5.412220    2.678640   -0.756335
  22 C     6.0000    0    12.011    2.923456    2.914278    0.027488
  23 C     6.0000    0    12.011   -2.018477   -0.292968    3.669536
  24 O     8.0000    0    15.999   -0.849294   -1.609927    5.107372
  25 C     6.0000    0    12.011   -4.855778    0.146616    3.659796
  26 C     6.0000    0    12.011   -6.173185   -2.267897    2.602121
  27 C     6.0000    0    12.011   -8.761727   -1.529314    1.632991
  28 H     1.0000    0     1.008  -13.464967   -2.967314   -2.162865
  29 H     1.0000    0     1.008   -7.185536   -0.240416   -1.851868
  30 H     1.0000    0     1.008   -9.055262    3.774971    1.825419
  31 H     1.0000    0     1.008   -7.293736    4.323890   -0.948138
  32 H     1.0000    0     1.008   -4.876643    4.175969    3.280931
  33 H     1.0000    0     1.008    1.731482   -3.239294    1.354125
  34 H     1.0000    0     1.008    6.137931   -3.622819   -0.024339
  35 H     1.0000    0     1.008   10.500788    3.589979    0.032874
  36 H     1.0000    0     1.008   14.911852    3.218204   -1.393980
  37 H     1.0000    0     1.008   16.280560   -0.513001   -3.874780
  38 H     1.0000    0     1.008   13.169327   -3.851854   -4.934207
  39 H     1.0000    0     1.008    8.744709   -3.449228   -3.557788
  40 H     1.0000    0     1.008    6.409858    4.352332   -1.380765
  41 H     1.0000    0     1.008    2.010707    4.740378    0.015226
  42 H     1.0000    0     1.008   -5.479743    0.430259    5.603466
  43 H     1.0000    0     1.008   -5.064523   -3.062867    1.047974
  44 H     1.0000    0     1.008   -6.260232   -3.695698    4.082369
  45 H     1.0000    0     1.008   -9.845530   -0.690272    3.197871

--------------------------------
INTERNAL COORDINATES (ANGSTROEM)
--------------------------------
 O      0   0   0     0.000000000000     0.00000000     0.00000000
 C      1   0   0     1.202460939026     0.00000000     0.00000000
 N      2   1   0     1.396605785898   125.40810675     0.00000000
 C      3   2   1     1.399765393779   114.94486678   186.25288664
 O      4   3   2     1.201735465749   125.15930689   186.84797348
 C      4   3   2     1.522217982419   104.90619812     9.23252520
 C      6   4   3     1.515364975284   121.21144752   210.84569170
 C      7   6   4     1.540076888206   109.28041323   175.40092590
 C      8   7   6     1.524544502144   114.15011861    84.82260062
 O      9   8   7     1.203480387570   126.97439605    29.98821595
 N      9   8   7     1.409450363887   107.61635444   208.22278540
 C     11   9   8     1.426928352165   124.14522807   188.17121045
 C     12  11   9     1.393557635397   120.13788085   222.20671631
 C     13  12  11     1.386542312183   119.72339171   180.07840801
 C     14  13  12     1.399277777835   121.67360900   359.84797213
 C     15  14  13     1.481939248717   121.27495357   180.18261910
 C     16  15  14     1.400602920006   120.94710867   216.33216660
 C     17  16  15     1.388884041464   120.91757155   180.01875043
 C     18  17  16     1.390729499606   120.29864759     0.08924985
 C     19  18  17     1.390714691245   119.43934181   359.95124746
 C     20  19  18     1.388873918432   120.29371004   359.96120834
 C     15  14  13     1.399366166215   117.45276724     0.14325525
 C     22  15  14     1.386388847789   121.64824365     0.00000000
 C     11   9   8     1.411648262630   111.61681473     8.40865949
 O     24  11   9     1.203077154492   125.24442418   184.50738983
 C     24  11   9     1.519356819419   107.84873015     8.04367036
 C     26  24  11     1.559422215597   108.51491468   102.28835903
 C     27  26  24     1.513971209546   108.33293324   201.94548476
 H      3   2   1     1.010540168089   122.55082855     6.39790807
 H      6   4   3     1.100512504405   103.72175087    88.90989371
 H      7   6   4     1.092986817696   109.86611932    55.40676435
 H      7   6   4     1.090131522526   111.81655666   295.88066715
 H      8   7   6     1.096684738145   107.98441739   199.62257266
 H     13  12  11     1.080409505229   119.98593125   358.43159796
 H     14  13  12     1.082748792561   118.72858064   178.31314126
 H     17  16  15     1.082735310140   119.36655249     1.69958581
 H     18  17  16     1.083316061649   119.64785645   180.60659021
 H     19  18  17     1.082818277776   120.27898781   179.94837684
 H     20  19  18     1.083295799200   120.05192845   179.42317347
 H     21  20  19     1.082732944269   119.69951837   178.39047350
 H     22  15  14     1.082738638236   119.58747384   181.63719977
 H     23  22  15     1.080338316776   120.22276956   181.43388354
 H     26  24  11     1.090624040468   108.48472212   219.88335325
 H     27  26  24     1.094320469069   110.18421631   321.41068146
 H     27  26  24     1.089298835300   109.21567598    78.96688942
 H     28  27  26     1.100824261979   108.70447987   301.39825738

---------------------------
INTERNAL COORDINATES (A.U.)
---------------------------
 O      0   0   0     0.000000000000     0.00000000     0.00000000
 C      1   0   0     2.272321861497     0.00000000     0.00000000
 N      2   1   0     2.639202452397   125.40810675     0.00000000
 C      3   2   1     2.645173245982   114.94486678   186.25288664
 O      4   3   2     2.270950915685   125.15930689   186.84797348
 C      4   3   2     2.876575102903   104.90619812     9.23252520
 C      6   4   3     2.863624796222   121.21144752   210.84569170
 C      7   6   4     2.910323543891   109.28041323   175.40092590
 C      8   7   6     2.880971588028   114.15011861    84.82260062
 O      9   8   7     2.274248340053   126.97439605    29.98821595
 N      9   8   7     2.663475187102   107.61635444   208.22278540
 C     11   9   8     2.696503798319   124.14522807   188.17121045
 C     12  11   9     2.633442282735   120.13788085   222.20671631
 C     13  12  11     2.620185243121   119.72339171   180.07840801
 C     14  13  12     2.644251785390   121.67360900   359.84797213
 C     15  14  13     2.800459327185   121.27495357   180.18261910
 C     16  15  14     2.646755941183   120.94710867   216.33216660
 C     17  16  15     2.624610470141   120.91757155   180.01875043
 C     18  17  16     2.628097880620   120.29864759     0.08924985
 C     19  18  17     2.628069896875   119.43934181   359.95124746
 C     20  19  18     2.624591340382   120.29371004   359.96120834
 C     15  14  13     2.644418815222   117.45276724     0.14325525
 C     22  15  14     2.619895237444   121.64824365     0.00000000
 C     11   9   8     2.667628613796   111.61681473     8.40865949
 O     24  11   9     2.273486339968   125.24442418   184.50738983
 C     24  11   9     2.871168288407   107.84873015     8.04367036
 C     26  24  11     2.946880914631   108.51491468   102.28835903
 C     27  26  24     2.860990960684   108.33293324   201.94548476
 H      3   2   1     1.909644165016   122.55082855     6.39790807
 H      6   4   3     2.079667240281   103.72175087    88.90989371
 H      7   6   4     2.065445753432   109.86611932    55.40676435
 H      7   6   4     2.060050027529   111.81655666   295.88066715
 H      8   7   6     2.072433810346   107.98441739   199.62257266
 H     13  12  11     2.041678077368   119.98593125   358.43159796
 H     14  13  12     2.046098689773   118.72858064   178.31314126
 H     17  16  15     2.046073211690   119.36655249     1.69958581
 H     18  17  16     2.047170672996   119.64785645   180.60659021
 H     19  18  17     2.046229997801   120.27898781   179.94837684
 H     20  19  18     2.047132382516   120.05192845   179.42317347
 H     21  20  19     2.046068740842   119.69951837   178.39047350
 H     22  15  14     2.046079500880   119.58747384   181.63719977
 H     23  22  15     2.041543550689   120.22276956   181.43388354
 H     26  24  11     2.060980751554   108.48472212   219.88335325
 H     27  26  24     2.067965989284   110.18421631   321.41068146
 H     27  26  24     2.058476476716   109.21567598    78.96688942
 H     28  27  26     2.080256376716   108.70447987   301.39825738



           ************************************************************
           *        Program running with 16 parallel MPI-processes    *
           *              working on a common directory               *
           ************************************************************
------------------------------------------------------------------------------
                   ___                                                        
                  /   \      - P O W E R E D   B Y -                         
                 /     \                                                     
                 |  |  |   _    _      __       _____    __    __             
                 |  |  |  | |  | |    /  \     |  _  \  |  |  /  |          
                  \  \/   | |  | |   /    \    | | | |  |  | /  /          
                 / \  \   | |__| |  /  /\  \   | |_| |  |  |/  /          
                |  |  |   |  __  | /  /__\  \  |    /   |      \           
                |  |  |   | |  | | |   __   |  |    \   |  |\   \          
                \     /   | |  | | |  |  |  |  | |\  \  |  | \   \       
                 \___/    |_|  |_| |__|  |__|  |_| \__\ |__|  \__/        
                                                                              
                      - O R C A' S   B I G   F R I E N D -                    
                                      &                                       
                       - I N T E G R A L  F E E D E R -                       
                                                                              
 v1 FN, 2020, v2 2021, v3 2022-2024                                           
------------------------------------------------------------------------------


----------------------
SHARK INTEGRAL PACKAGE
----------------------

Number of atoms                             ...     46
Number of basis functions                   ...    976
Number of shells                            ...    380
Maximum angular momentum                    ...      3
Integral batch strategy                     ... SHARK/LIBINT Hybrid
RI-J (if used) integral strategy            ... SPLIT-RIJ (Revised 2003 algorithm where possible)
Printlevel                                  ...      1
Contraction scheme used                     ... SEGMENTED contraction
Prescreening option                         ... SCHWARTZ
   Thresh                                   ... 2.500e-11
   Tcut                                     ... 2.500e-12
   Tpresel                                  ... 2.500e-12 
Coulomb Range Separation                    ... NOT USED
Exchange Range Separation                   ... NOT USED
Multipole approximations                    ... NOT USED
Finite Nucleus Model                        ... NOT USED
CABS basis                                  ... NOT available
Auxiliary Coulomb fitting basis             ... AVAILABLE
   # of basis functions in Aux-J            ...   1570
   # of shells in Aux-J                     ...    510
   Maximum angular momentum in Aux-J        ...      4
Auxiliary J/K fitting basis                 ... NOT available
Auxiliary Correlation fitting basis         ... NOT available
Auxiliary 'external' fitting basis          ... NOT available

Checking pre-screening integrals            ... done (  0.0 sec) Dimension = 380
   => SHARK Basis and OBASIS are compatible. Storing Pre-screening
Shell pair information
Shell pair cut-off parameter TPreSel        ...   2.5e-12
Total number of shell pairs                 ...     72390
Shell pairs after pre-screening             ...     42413
Total number of primitive shell pairs       ...    224116
Primitive shell pairs kept                  ...     86612
          la=0 lb=0:  10634 shell pairs
          la=1 lb=0:  12292 shell pairs
          la=1 lb=1:   3567 shell pairs
          la=2 lb=0:   6003 shell pairs
          la=2 lb=1:   3518 shell pairs
          la=2 lb=2:    876 shell pairs
          la=3 lb=0:   2844 shell pairs
          la=3 lb=1:   1686 shell pairs
          la=3 lb=2:    796 shell pairs
          la=3 lb=3:    197 shell pairs

Checking whether 4 symmetric matrices of dimension 976 fit in memory
:Max Core in MB      =   4096.00
 MB in use           =     62.23
 MB left             =   4033.77
 MB needed           =     14.55
 Data fit in memory  = YES
Calculating RI/J V-Matrix + Cholesky decomp.... done (  0.1 sec)
Calculating Nuclear repulsion               ... done (  0.0 sec) ENN=   2403.968788962613 Eh

Diagonalization of the overlap matrix:
Smallest eigenvalue                        ... 6.598e-06
Time for diagonalization                   ...    0.157 sec
Threshold for overlap eigenvalues          ... 1.000e-07
Number of eigenvalues below threshold      ... 0
Time for construction of square roots      ...    0.067 sec
Total time needed                          ...    0.231 sec

-------------------
DFT GRID GENERATION
-------------------

General Integration Accuracy     IntAcc      ... 4.388
Radial Grid Type                 RadialGrid  ... OptM3 with GC (2021)
Angular Grid (max. ang.)         AngularGrid ... 4 (Lebedev-302)
Angular grid pruning method      GridPruning ... 4 (adaptive)
Weight generation scheme         WeightScheme... mBecke (2022)
Basis function cutoff            BFCut       ... 1.0000e-11
Integration weight cutoff        WCut        ... 1.0000e-14
Partially contracted basis set               ... off
Rotationally invariant grid construction     ... off
Angular grids for H and He will be reduced by one unit

Total number of grid points                  ...   224170
Total number of batches                      ...     3526
Average number of points per batch           ...       63
Average number of grid points per atom       ...     4873

--------------------
COSX GRID GENERATION
--------------------

GRIDX 1
-------
General Integration Accuracy     IntAcc      ... 3.816
Radial Grid Type                 RadialGrid  ... OptM3 with GC (2021)
Angular Grid (max. ang.)         AngularGrid ... 1 (Lebedev-50)
Angular grid pruning method      GridPruning ... 4 (adaptive)
Weight generation scheme         WeightScheme... mBecke (2022)
Basis function cutoff            BFCut       ... 1.0000e-11
Integration weight cutoff        WCut        ... 1.0000e-14
Partially contracted basis set               ... on
Rotationally invariant grid construction     ... off
Angular grids for H and He will be reduced by one unit

Total number of grid points                  ...    28409
Total number of batches                      ...      247
Average number of points per batch           ...      115
Average number of grid points per atom       ...      618
UseSFitting                                  ... on

GRIDX 2
-------
General Integration Accuracy     IntAcc      ... 4.020
Radial Grid Type                 RadialGrid  ... OptM3 with GC (2021)
Angular Grid (max. ang.)         AngularGrid ... 2 (Lebedev-110)
Angular grid pruning method      GridPruning ... 4 (adaptive)
Weight generation scheme         WeightScheme... mBecke (2022)
Basis function cutoff            BFCut       ... 1.0000e-11
Integration weight cutoff        WCut        ... 1.0000e-14
Partially contracted basis set               ... on
Rotationally invariant grid construction     ... off
Angular grids for H and He will be reduced by one unit

Total number of grid points                  ...    62253
Total number of batches                      ...      507
Average number of points per batch           ...      122
Average number of grid points per atom       ...     1353
UseSFitting                                  ... on

GRIDX 3
-------
General Integration Accuracy     IntAcc      ... 4.338
Radial Grid Type                 RadialGrid  ... OptM3 with GC (2021)
Angular Grid (max. ang.)         AngularGrid ... 3 (Lebedev-194)
Angular grid pruning method      GridPruning ... 4 (adaptive)
Weight generation scheme         WeightScheme... mBecke (2022)
Basis function cutoff            BFCut       ... 1.0000e-11
Integration weight cutoff        WCut        ... 1.0000e-14
Partially contracted basis set               ... on
Rotationally invariant grid construction     ... off
Angular grids for H and He will be reduced by one unit

Total number of grid points                  ...   136308
Total number of batches                      ...     1088
Average number of points per batch           ...      125
Average number of grid points per atom       ...     2963
UseSFitting                                  ... on
Grids setup in   1.9 sec
Initializing property integral containers    ... done (  0.0 sec)

SHARK setup successfully completed in   2.6 seconds

Maximum memory used throughout the entire STARTUP-calculation: 104.0 MB


           ************************************************************
           *        Program running with 16 parallel MPI-processes    *
           *              working on a common directory               *
           ************************************************************
Occupation numbers will be reassigned to an Aufbau configuration
             **** ENERGY FILE WAS UPDATED (conjugate_row2_A2_H4.en.tmp) ****
Finished Guess after   0.7 sec
Maximum memory used throughout the entire GUESS-calculation: 99.0 MB


           ************************************************************
           *        Program running with 16 parallel MPI-processes    *
           *              working on a common directory               *
           ************************************************************
----------------------------------------D-I-I-S--------------------------------------------
Iteration    Energy (Eh)           Delta-E    RMSDP     MaxDP     DIISErr   Damp  Time(sec)
-------------------------------------------------------------------------------------------
               ***  Starting incremental Fock matrix formation  ***
    1    -1259.3804101621376503     0.00e+00  4.15e-04  4.60e-03  4.10e-02  0.700   6.8
    2    -1259.3870992263273365    -6.69e-03  3.79e-04  4.14e-03  3.25e-02  0.700   3.5
                               ***Turning on AO-DIIS***
    3    -1259.3924576375538891    -5.36e-03  3.05e-04  3.21e-03  2.45e-02  0.700   3.2
    4    -1259.3964444184784952    -3.99e-03  7.66e-04  8.13e-03  1.79e-02  0.000   3.1
                              *** Initializing SOSCF ***
---------------------------------------S-O-S-C-F--------------------------------------
Iteration    Energy (Eh)           Delta-E    RMSDP     MaxDP     MaxGrad    Time(sec)
--------------------------------------------------------------------------------------
    5    -1259.4065153313536030    -1.01e-02  5.86e-05  1.33e-03  1.02e-03     3.6
               *** Restarting incremental Fock matrix formation ***
    6    -1259.4065432770994448    -2.79e-05  7.65e-05  2.85e-03  2.72e-04     6.6
    7    -1259.4065397717067754     3.51e-06  5.11e-05  2.69e-03  5.41e-04     4.4
    8    -1259.4065519993109774    -1.22e-05  1.64e-05  4.44e-04  7.02e-05     4.0
    9    -1259.4065521528923455    -1.54e-07  8.63e-06  6.59e-04  7.27e-05     3.6
   10    -1259.4065522372275154    -8.43e-08  7.20e-06  2.56e-04  3.92e-05     3.0
   11    -1259.4065523020321962    -6.48e-08  4.64e-06  1.33e-04  1.03e-05     3.2
   12    -1259.4065523245972145    -2.26e-08  3.43e-06  7.18e-05  6.02e-06     2.7
   13    -1259.4065523307399417    -6.14e-09  3.39e-06  9.44e-05  4.30e-06     2.6
                 **** Energy Check signals convergence ****

               *****************************************************
               *                     SUCCESS                       *
               *           SCF CONVERGED AFTER  13 CYCLES          *
               *****************************************************

Recomputing exchange energy using gridx3       ... done (   10.944 sec)
Old exchange energy                            :    -33.370909326 Eh
New exchange energy                            :    -33.370915903 Eh
Exchange energy change after final integration :     -0.000006577 Eh
Total energy after final integration           :  -1259.406558854 Eh
             **** ENERGY FILE WAS UPDATED (conjugate_row2_A2_H4.en.tmp) ****

----------------
TOTAL SCF ENERGY
----------------

Total Energy       :      -1259.40655885394608 Eh          -34270.19473 eV

Components:
Nuclear Repulsion  :       2403.96878896261251 Eh           65415.31640 eV
Electronic Energy  :      -3663.37534123983914 Eh          -99685.51095 eV
One Electron Energy:      -6489.43024136101849 Eh         -176586.37435 eV
Two Electron Energy:       2826.05490012117934 Eh           76900.86340 eV

Virial components:
Potential Energy   :      -2513.37374533147840 Eh          -68392.37661 eV
Kinetic Energy     :       1253.96718647753232 Eh           34122.18188 eV
Virial Ratio       :          2.00433773103082

DFT components:
N(Alpha)           :       97.999985155194 electrons
N(Beta)            :       97.999985155194 electrons
N(Total)           :      195.999970310388 electrons
E(X)               :     -132.671466233119 Eh       
E(C)               :       -7.941624665942 Eh       
E(XC)              :     -140.613090899060 Eh       

---------------
SCF CONVERGENCE
---------------

  Last Energy change         ...    6.1427e-09  Tolerance :   1.0000e-08
  Last MAX-Density change    ...    9.4379e-05  Tolerance :   1.0000e-07
  Last RMS-Density change    ...    3.3861e-06  Tolerance :   5.0000e-09
  Last DIIS Error            ...    1.0240e-03  Tolerance :   5.0000e-07
  Last Orbital Gradient      ...    4.3050e-06  Tolerance :   1.0000e-05
  Last Orbital Rotation      ...    1.1119e-05  Tolerance :   1.0000e-05


Total SCF time: 0 days 0 hours 1 min 4 sec 
Finished LeanSCF after  64.3 sec

Maximum memory used throughout the entire LEANSCF-calculation: 138.7 MB

-------------------------   --------------------
FINAL SINGLE POINT ENERGY     -1259.406558853946
-------------------------   --------------------



           ************************************************************
           *        Program running with 16 parallel MPI-processes    *
           *              working on a common directory               *
           ************************************************************
------------------------------------------------------------------------------
                         ORCA SCF GRADIENT CALCULATION
------------------------------------------------------------------------------

Nuc. rep. gradient        (SHARK) ... done (  0.0 sec)
HCore & Overlap gradient  (SHARK) ... done (  0.3 sec)
Split-RIJ-J gradient      (SHARK) ... done (  1.8 sec)
COSX-gradient                     ... done ( 19.1 sec)
XC gradient                       ... done (  2.4 sec)

------------------
CARTESIAN GRADIENT
------------------

   1   O   :   -0.000446252    0.000649645   -0.000756591
   2   C   :    0.000515816   -0.001794633    0.002133930
   3   N   :   -0.000392157   -0.000234951   -0.000053394
   4   C   :    0.000856834    0.002420569   -0.001826092
   5   O   :   -0.000296173   -0.001046323    0.000382374
   6   C   :   -0.001321731    0.000322699    0.002040428
   7   C   :   -0.000542940   -0.000227304   -0.000569798
   8   C   :    0.000433330   -0.001637342   -0.000920072
   9   C   :   -0.002953172    0.002553340    0.000238762
  10   O   :    0.000078161   -0.000268788   -0.000374605
  11   N   :    0.004678891   -0.001164516   -0.001761314
  12   C   :   -0.001298881    0.000052069    0.000200660
  13   C   :    0.000269999   -0.001835518    0.000153476
  14   C   :   -0.000358862    0.001418596   -0.000345393
  15   C   :    0.000946377   -0.000071904   -0.000321863
  16   C   :    0.000023746   -0.000042831   -0.000006780
  17   C   :    0.000389843    0.000918125    0.000061710
  18   C   :   -0.000117990   -0.000349937   -0.000208787
  19   C   :    0.000210212   -0.000006411   -0.000052180
  20   C   :    0.000082388    0.000339895    0.000215429
  21   C   :    0.000129934   -0.000917733   -0.000219477
  22   C   :   -0.000322314   -0.001291651    0.000621384
  23   C   :    0.000406818    0.001862078   -0.000296074
  24   C   :   -0.002586412    0.000382220    0.003742557
  25   O   :    0.000364541   -0.000406742   -0.000575178
  26   C   :    0.000455779    0.002071924   -0.001136381
  27   C   :   -0.000840401   -0.000884943   -0.000147243
  28   C   :    0.001510750   -0.000073858   -0.001727702
  29   H   :   -0.000006036    0.000012707    0.000059693
  30   H   :    0.000065123   -0.000500947   -0.000033202
  31   H   :    0.000100773   -0.000144300    0.000361161
  32   H   :    0.000561890   -0.000027285    0.000034210
  33   H   :    0.000632205   -0.000214844    0.000516792
  34   H   :   -0.000537884    0.000115911    0.000374838
  35   H   :    0.000111819   -0.000220194   -0.000056000
  36   H   :   -0.000467391   -0.000158928    0.000068391
  37   H   :    0.000091853    0.000082068    0.000043657
  38   H   :    0.000055752   -0.000003763   -0.000015656
  39   H   :    0.000030345   -0.000084030   -0.000097717
  40   H   :   -0.000370920    0.000207138    0.000181342
  41   H   :    0.000169968    0.000197053   -0.000047685
  42   H   :   -0.000502880   -0.000123623   -0.000017942
  43   H   :    0.000526617   -0.000782136    0.000413298
  44   H   :    0.000088372    0.000452278   -0.000311849
  45   H   :   -0.000038856    0.000130205    0.000218503
  46   H   :   -0.000386883    0.000326918   -0.000183617

Difference to translation invariance:
           :    0.0000000000   -0.0000000000   -0.0000000000

Difference to rotation invariance:
           :    0.0004799875    0.0000651761    0.0000269553

Norm of the Cartesian gradient     ...    0.0113218617
RMS gradient                       ...    0.0009637809
MAX gradient                       ...    0.0046788907

-------
TIMINGS
-------

Total SCF gradient time     ....       23.566 sec

Densities                   ....       0.007 sec  (  0.0%)
One electron gradient       ....       0.321 sec  (  1.4%)
RI-J Coulomb gradient       ....       1.768 sec  (  7.5%)
COSX gradient               ....      19.085 sec  ( 81.0%)
XC gradient                 ....       2.384 sec  ( 10.1%)

Maximum memory used throughout the entire SCFGRAD-calculation: 164.0 MB
------------------------------------------------------------------------------
                         ORCA GEOMETRY RELAXATION STEP
------------------------------------------------------------------------------

Reading the OPT-File                    .... done
Getting information on internals        .... done
Copying old internal coords+grads       .... done
Making the new internal coordinates     .... (2022 redundants) done
Validating the new internal coordinates .... (2022 redundants) done
Calculating the B-matrix                .... done
Calculating the G,G- and P matrices     .... done
Transforming gradient to internals      .... done
Projecting the internal gradient        .... done
Number of atoms                         ....  46
Number of internal coordinates          .... 268
Current Energy                          .... -1259.406558854 Eh
Current gradient norm                   ....     0.011321862 Eh/bohr
Maximum allowed component of the step   ....  0.300
Current trust radius                    ....  0.675
Updating the Hessian (BFGS)             .... done
Forming the augmented Hessian           .... done
Diagonalizing the augmented Hessian     .... done
Last element of RFO vector              ....  0.992416476
Lowest eigenvalues of augmented Hessian:
 -0.000287573  0.005219075  0.014789749  0.015233054  0.016127629
Length of the computed step             ....  0.123860161
The final length of the internal step   ....  0.123860161
Converting the step to Cartesian space:
 Initial RMS(Int)=    0.0075659635
Transforming coordinates:
 Iter   0:  RMS(Cart)=    0.0587111829 RMS(Int)=    0.3838589002
done
Storing new coordinates                 .... done
The predicted energy change is          ....    -0.000145992
Previously predicted energy change      ....    -0.000334154
Actually observed energy change         ....    -0.000395760
Ratio of predicted to observed change   ....     1.184366777
New trust radius                        ....     0.700000000

                                .--------------------.
          ----------------------|Geometry convergence|-------------------------
          Item                value                   Tolerance       Converged
          ---------------------------------------------------------------------
          Energy change      -0.0003957604            0.0000050000      NO
          RMS gradient        0.0003949931            0.0001000000      NO
          MAX gradient        0.0023744345            0.0003000000      NO
          RMS step            0.0075659635            0.0020000000      NO
          MAX step            0.0491831768            0.0040000000      NO
          -------------------------------------------------------------------------
          ........................................................
          Max(Bonds)      0.0048      Max(Angles)    0.36
          Max(Dihed)        2.82      Max(Improp)    0.00
          ---------------------------------------------------------------------

The optimization has not yet converged - more geometry cycles are needed


    ---------------------------------------------------------------------------
                         Redundant Internal Coordinates
                            (Angstroem and degrees)

        Definition                    Value    dE/dq     Step     New-Value
    ----------------------------------------------------------------------------
     1. B(C   1,O   0)                1.2025 -0.000757  0.0010    1.2035   
     2. B(N   2,C   1)                1.3966  0.000657 -0.0020    1.3946   
     3. B(C   3,N   2)                1.3998  0.000824 -0.0023    1.3975   
     4. B(O   4,C   3)                1.2017 -0.000778  0.0010    1.2027   
     5. B(C   5,C   3)                1.5222  0.000105 -0.0006    1.5216   
     6. B(C   6,C   5)                1.5154 -0.000211 -0.0001    1.5152   
     7. B(C   7,C   6)                1.5401  0.000086  0.0005    1.5405   
     8. B(C   8,C   7)                1.5245 -0.000839  0.0010    1.5256   
     9. B(O   9,C   8)                1.2035  0.000199  0.0005    1.2040   
    10. B(N  10,C   8)                1.4095  0.002374 -0.0048    1.4046   
    11. B(C  11,N  10)                1.4269 -0.001083  0.0004    1.4273   
    12. B(C  12,C  11)                1.3936  0.000764 -0.0013    1.3922   
    13. B(C  13,C  12)                1.3865  0.000338  0.0001    1.3866   
    14. B(C  14,C  13)                1.3993  0.000031  0.0004    1.3997   
    15. B(C  15,C  14)                1.4819  0.000065 -0.0005    1.4814   
    16. B(C  16,C  15)                1.4006  0.000261  0.0001    1.4007   
    17. B(C  17,C  16)                1.3889  0.000178  0.0000    1.3889   
    18. B(C  18,C  17)                1.3907  0.000142 -0.0001    1.3906   
    19. B(C  19,C  18)                1.3907  0.000163 -0.0001    1.3906   
    20. B(C  20,C  19)                1.3889  0.000194 -0.0000    1.3889   
    21. B(C  20,C  15)                1.4006  0.000265  0.0001    1.4007   
    22. B(C  21,C  14)                1.3994  0.000023  0.0004    1.3998   
    23. B(C  22,C  21)                1.3864  0.000302  0.0002    1.3866   
    24. B(C  22,C  11)                1.3936  0.000836 -0.0014    1.3923   
    25. B(C  23,N  10)                1.4116  0.002257 -0.0044    1.4072   
    26. B(O  24,C  23)                1.2031  0.000058  0.0005    1.2036   
    27. B(C  25,C  23)                1.5194 -0.000697  0.0012    1.5205   
    28. B(C  25,C   7)                1.5446 -0.000849  0.0020    1.5466   
    29. B(C  26,C  25)                1.5594  0.000726 -0.0011    1.5583   
    30. B(C  27,C   5)                1.5291 -0.000428  0.0003    1.5295   
    31. B(C  27,C   1)                1.5234  0.000164 -0.0006    1.5228   
    32. B(C  27,C  26)                1.5140 -0.000327 -0.0000    1.5139   
    33. B(H  28,N   2)                1.0105 -0.000027 -0.0000    1.0105   
    34. B(H  29,C   5)                1.1005  0.000234 -0.0004    1.1002   
    35. B(H  30,C   6)                1.0930  0.000094 -0.0001    1.0929   
    36. B(H  31,C   6)                1.0901  0.000053  0.0001    1.0902   
    37. B(H  32,C   7)                1.0967  0.000229 -0.0003    1.0964   
    38. B(H  33,C  12)                1.0804  0.000289  0.0003    1.0807   
    39. B(H  34,C  13)                1.0827  0.000246 -0.0003    1.0824   
    40. B(H  35,C  16)                1.0827  0.000042  0.0000    1.0828   
    41. B(H  36,C  17)                1.0833  0.000129 -0.0001    1.0832   
    42. B(H  37,C  18)                1.0828  0.000058  0.0000    1.0828   
    43. B(H  38,C  19)                1.0833  0.000128 -0.0001    1.0832   
    44. B(H  39,C  20)                1.0827  0.000055 -0.0000    1.0827   
    45. B(H  40,C  21)                1.0827  0.000259 -0.0004    1.0824   
    46. B(H  41,C  22)                1.0803  0.000115  0.0005    1.0808   
    47. B(H  42,C  25)                1.0906  0.000123 -0.0000    1.0906   
    48. B(H  43,C  26)                1.0943  0.000106 -0.0001    1.0943   
    49. B(H  44,C  26)                1.0893  0.000069  0.0000    1.0893   
    50. B(H  45,C  27)                1.1008  0.000196 -0.0003    1.1005   
    51. A(O   0,C   1,N   2)          125.41 -0.000627    0.12    125.52   
    52. A(O   0,C   1,C  27)          129.61  0.001154   -0.25    129.36   
    53. A(N   2,C   1,C  27)          104.91 -0.000524    0.14    105.05   
    54. A(C   1,N   2,H  28)          122.55 -0.000235    0.09    122.64   
    55. A(C   1,N   2,C   3)          114.94  0.000424   -0.17    114.78   
    56. A(C   3,N   2,H  28)          122.50 -0.000189    0.07    122.58   
    57. A(N   2,C   3,C   5)          104.91 -0.000597    0.14    105.05   
    58. A(O   4,C   3,C   5)          129.88  0.001271   -0.27    129.61   
    59. A(N   2,C   3,O   4)          125.16 -0.000664    0.12    125.28   
    60. A(C   3,C   5,C  27)          103.56  0.000484   -0.18    103.38   
    61. A(C   3,C   5,H  29)          103.72 -0.000244    0.09    103.81   
    62. A(C   6,C   5,H  29)          108.46  0.000186    0.00    108.46   
    63. A(C  27,C   5,H  29)          107.50 -0.000345    0.33    107.83   
    64. A(C   3,C   5,C   6)          121.21  0.000004   -0.10    121.11   
    65. A(C   6,C   5,C  27)          111.46 -0.000147   -0.08    111.39   
    66. A(C   5,C   6,H  30)          109.87 -0.000091   -0.02    109.84   
    67. A(C   5,C   6,C   7)          109.28  0.000322    0.05    109.33   
    68. A(C   7,C   6,H  31)          108.77 -0.000809    0.16    108.93   
    69. A(C   5,C   6,H  31)          111.82  0.000260   -0.11    111.71   
    70. A(H  30,C   6,H  31)          107.70  0.000373   -0.15    107.55   
    71. A(C   7,C   6,H  30)          109.37 -0.000071    0.07    109.44   
    72. A(C   8,C   7,H  32)          103.75 -0.000092    0.00    103.75   
    73. A(C   6,C   7,H  32)          107.98  0.000498   -0.21    107.78   
    74. A(C   6,C   7,C   8)          114.15 -0.000659    0.09    114.24   
    75. A(C   8,C   7,C  25)          103.37  0.000697   -0.06    103.31   
    76. A(C   6,C   7,C  25)          119.21  0.000050   -0.05    119.16   
    77. A(C  25,C   7,H  32)          107.14 -0.000539    0.25    107.39   
    78. A(O   9,C   8,N  10)          125.38 -0.000202    0.08    125.46   
    79. A(C   7,C   8,O   9)          126.97  0.000265   -0.01    126.96   
    80. A(C   7,C   8,N  10)          107.62 -0.000058   -0.06    107.56   
    81. A(C   8,N  10,C  23)          111.62 -0.001162    0.36    111.98   
    82. A(C   8,N  10,C  11)          124.15  0.000678   -0.15    123.99   
    83. A(C  11,N  10,C  23)          124.24  0.000484   -0.21    124.03   
    84. A(C  12,C  11,C  22)          119.75  0.000335   -0.03    119.72   
    85. A(N  10,C  11,C  22)          120.11 -0.000034    0.02    120.14   
    86. A(N  10,C  11,C  12)          120.14 -0.000301    0.01    120.15   
    87. A(C  13,C  12,H  33)          120.27  0.000886   -0.12    120.15   
    88. A(C  11,C  12,H  33)          119.99 -0.000272    0.00    119.99   
    89. A(C  11,C  12,C  13)          119.72 -0.000616    0.12    119.84   
    90. A(C  12,C  13,C  14)          121.67  0.000650   -0.16    121.51   
    91. A(C  14,C  13,H  34)          119.58 -0.000350    0.07    119.65   
    92. A(C  12,C  13,H  34)          118.73 -0.000301    0.10    118.82   
    93. A(C  15,C  14,C  21)          121.27  0.000166   -0.05    121.22   
    94. A(C  13,C  14,C  21)          117.45 -0.000404    0.11    117.57   
    95. A(C  13,C  14,C  15)          121.27  0.000238   -0.06    121.21   
    96. A(C  16,C  15,C  20)          118.13  0.000300   -0.10    118.03   
    97. A(C  14,C  15,C  20)          120.92 -0.000069    0.03    120.96   
    98. A(C  14,C  15,C  16)          120.95 -0.000231    0.06    121.01   
    99. A(C  15,C  16,C  17)          120.92 -0.000255    0.06    120.98   
   100. A(C  17,C  16,H  35)          119.69  0.000634   -0.16    119.54   
   101. A(C  15,C  16,H  35)          119.37 -0.000380    0.09    119.46   
   102. A(C  16,C  17,C  18)          120.30  0.000113   -0.02    120.28   
   103. A(C  18,C  17,H  36)          120.05 -0.000061    0.01    120.06   
   104. A(C  16,C  17,H  36)          119.65 -0.000052    0.01    119.66   
   105. A(C  17,C  18,C  19)          119.44 -0.000003    0.00    119.44   
   106. A(C  19,C  18,H  37)          120.28  0.000003   -0.00    120.28   
   107. A(C  17,C  18,H  37)          120.28  0.000001   -0.00    120.28   
   108. A(C  18,C  19,C  20)          120.29  0.000120   -0.02    120.27   
   109. A(C  20,C  19,H  38)          119.65 -0.000058    0.01    119.67   
   110. A(C  18,C  19,H  38)          120.05 -0.000062    0.01    120.06   
   111. A(C  15,C  20,C  19)          120.92 -0.000274    0.07    120.99   
   112. A(C  19,C  20,H  39)          119.70  0.000605   -0.15    119.55   
   113. A(C  15,C  20,H  39)          119.36 -0.000332    0.08    119.44   
   114. A(C  14,C  21,C  22)          121.65  0.000643   -0.16    121.49   
   115. A(C  22,C  21,H  40)          118.75 -0.000281    0.09    118.83   
   116. A(C  14,C  21,H  40)          119.59 -0.000362    0.07    119.66   
   117. A(C  11,C  22,C  21)          119.75 -0.000608    0.11    119.86   
   118. A(C  21,C  22,H  41)          120.22  0.000782   -0.10    120.13   
   119. A(C  11,C  22,H  41)          120.01 -0.000175   -0.02    119.99   
   120. A(O  24,C  23,C  25)          126.80  0.000548   -0.07    126.73   
   121. A(N  10,C  23,C  25)          107.85  0.000019    0.01    107.86   
   122. A(N  10,C  23,O  24)          125.24 -0.000597    0.06    125.31   
   123. A(C  26,C  25,H  42)          108.42 -0.000028    0.04    108.45   
   124. A(C  23,C  25,H  42)          108.48 -0.000652    0.30    108.79   
   125. A(C   7,C  25,H  42)          112.46  0.000462   -0.36    112.10   
   126. A(C  23,C  25,C  26)          108.51  0.000073   -0.12    108.40   
   127. A(C   7,C  25,C  26)          115.29 -0.000359    0.12    115.41   
   128. A(C   7,C  25,C  23)          103.34  0.000472    0.04    103.38   
   129. A(C  25,C  26,C  27)          108.33  0.000305    0.04    108.38   
   130. A(C  27,C  26,H  44)          112.61 -0.000037   -0.06    112.54   
   131. A(C  25,C  26,H  44)          109.22 -0.000297    0.04    109.25   
   132. A(C  27,C  26,H  43)          109.25 -0.000149    0.04    109.29   
   133. A(C  25,C  26,H  43)          110.18 -0.000147    0.07    110.25   
   134. A(H  43,C  26,H  44)          107.24  0.000316   -0.13    107.12   
   135. A(C   5,C  27,C  26)          111.15  0.000015   -0.09    111.06   
   136. A(C   1,C  27,C  26)          121.05 -0.000143   -0.03    121.02   
   137. A(C  26,C  27,H  45)          108.70  0.000370   -0.04    108.66   
   138. A(C   1,C  27,C   5)          103.62  0.000378   -0.15    103.47   
   139. A(C   5,C  27,H  45)          107.65 -0.000496    0.32    107.97   
   140. A(C   1,C  27,H  45)          103.79 -0.000211    0.05    103.83   
   141. D(C   3,N   2,C   1,C  27)      9.05 -0.000088    0.01      9.05   
   142. D(H  28,N   2,C   1,C  27)   -170.81 -0.000096   -0.03   -170.84   
   143. D(C   3,N   2,C   1,O   0)   -173.75 -0.000003    0.07   -173.68   
   144. D(H  28,N   2,C   1,O   0)      6.40 -0.000011    0.03      6.43   
   145. D(C   5,C   3,N   2,C   1)      9.23 -0.000232    0.24      9.47   
   146. D(O   4,C   3,N   2,H  28)      6.70  0.000034    0.10      6.80   
   147. D(C   5,C   3,N   2,H  28)   -170.91 -0.000224    0.27   -170.64   
   148. D(O   4,C   3,N   2,C   1)   -173.15  0.000026    0.06   -173.09   
   149. D(C  27,C   5,C   3,O   4)    159.28  0.000107   -0.18    159.09   
   150. D(C   6,C   5,C   3,O   4)     33.39 -0.000140    0.15     33.53   
   151. D(C  27,C   5,C   3,N   2)    -23.26  0.000314   -0.34    -23.60   
   152. D(H  29,C   5,C   3,N   2)     88.91  0.000026   -0.02     88.89   
   153. D(C   6,C   5,C   3,N   2)   -149.15  0.000067   -0.01   -149.16   
   154. D(C   7,C   6,C   5,C  27)     53.20 -0.000083    0.12     53.32   
   155. D(C   7,C   6,C   5,H  29)    -64.96  0.000310   -0.24    -65.19   
   156. D(C   7,C   6,C   5,C   3)    175.40  0.000478   -0.29    175.11   
   157. D(H  30,C   6,C   5,H  29)    175.05  0.000253   -0.34    174.71   
   158. D(H  30,C   6,C   5,C   3)     55.41  0.000422   -0.40     55.01   
   159. D(H  30,C   6,C   5,C  27)    -66.79 -0.000140    0.01    -66.78   
   160. D(C  25,C   7,C   6,H  30)     82.37 -0.000075    0.36     82.72   
   161. D(C  25,C   7,C   6,C   5)    -37.94 -0.000117    0.31    -37.63   
   162. D(C   8,C   7,C   6,H  31)    -37.50  0.000300    0.25    -37.25   
   163. D(C   8,C   7,C   6,C   5)     84.82  0.000312    0.26     85.08   
   164. D(C  25,C   7,C   6,H  31)   -160.26 -0.000129    0.30   -159.96   
   165. D(C   8,C   7,C   6,H  30)   -154.88  0.000355    0.31   -154.57   
   166. D(N  10,C   8,C   7,C  25)    -20.76  0.000065    0.07    -20.69   
   167. D(O   9,C   8,C   7,H  32)    -87.28 -0.000476    1.26    -86.02   
   168. D(O   9,C   8,C   7,C   6)     29.99 -0.000267    1.06     31.05   
   169. D(O   9,C   8,C   7,C  25)    161.01 -0.000107    1.01    162.02   
   170. D(N  10,C   8,C   7,C   6)   -151.78 -0.000095    0.12   -151.66   
   171. D(C  11,N  10,C   8,C   7)   -171.83 -0.000241    0.52   -171.31   
   172. D(C  23,N  10,C   8,O   9)   -173.32 -0.000102   -0.49   -173.81   
   173. D(C  23,N  10,C   8,C   7)      8.41 -0.000281    0.56      8.97   
   174. D(C  11,N  10,C   8,O   9)      6.44 -0.000062   -0.53      5.91   
   175. D(C  22,C  11,N  10,C  23)   -137.97 -0.000174    2.69   -135.28   
   176. D(C  22,C  11,N  10,C   8)     42.29 -0.000215    2.73     45.03   
   177. D(C  12,C  11,N  10,C  23)     41.94 -0.000226    2.77     44.71   
   178. D(C  12,C  11,N  10,C   8)   -137.79 -0.000267    2.82   -134.98   
   179. D(H  33,C  12,C  11,C  22)    178.35 -0.000097    0.25    178.59   
   180. D(H  33,C  12,C  11,N  10)     -1.57 -0.000044    0.17     -1.40   
   181. D(C  13,C  12,C  11,C  22)     -0.01 -0.000024    0.06      0.06   
   182. D(C  13,C  12,C  11,N  10)   -179.92  0.000029   -0.01   -179.93   
   183. D(H  34,C  13,C  12,H  33)     -0.04  0.000100   -0.28     -0.31   
   184. D(C  14,C  13,C  12,H  33)   -178.50  0.000119   -0.32   -178.82   
   185. D(C  14,C  13,C  12,C  11)     -0.15  0.000026   -0.14     -0.30   
   186. D(H  34,C  13,C  12,C  11)    178.31  0.000007   -0.10    178.21   
   187. D(C  21,C  14,C  13,H  34)   -178.31  0.000013    0.04   -178.27   
   188. D(C  21,C  14,C  13,C  12)      0.14 -0.000005    0.08      0.22   
   189. D(C  15,C  14,C  13,H  34)      1.73 -0.000005    0.08      1.82   
   190. D(C  15,C  14,C  13,C  12)   -179.82 -0.000023    0.13   -179.69   
   191. D(C  20,C  15,C  14,C  21)   -143.57 -0.000279    0.75   -142.82   
   192. D(C  20,C  15,C  14,C  13)     36.39 -0.000261    0.70     37.09   
   193. D(C  16,C  15,C  14,C  21)     36.37 -0.000283    0.74     37.12   
   194. D(C  16,C  15,C  14,C  13)   -143.67 -0.000265    0.69   -142.97   
   195. D(H  35,C  16,C  15,C  20)   -178.36  0.000004    0.01   -178.35   
   196. D(H  35,C  16,C  15,C  14)      1.70  0.000008    0.01      1.71   
   197. D(C  17,C  16,C  15,C  20)     -0.04 -0.000007    0.02     -0.02   
   198. D(C  17,C  16,C  15,C  14)   -179.98 -0.000003    0.03   -179.96   
   199. D(C  18,C  17,C  16,C  15)      0.09  0.000005   -0.02      0.07   
   200. D(C  18,C  17,C  16,H  35)    178.40 -0.000022    0.00    178.41   
   201. D(H  36,C  17,C  16,H  35)     -1.08 -0.000011   -0.02     -1.10   
   202. D(H  36,C  17,C  16,C  15)   -179.39  0.000016   -0.04   -179.43   
   203. D(C  19,C  18,C  17,C  16)     -0.05  0.000001   -0.01     -0.06   
   204. D(H  37,C  18,C  17,H  36)     -0.57 -0.000013    0.03     -0.54   
   205. D(H  37,C  18,C  17,C  16)    179.95 -0.000002    0.00    179.95   
   206. D(C  19,C  18,C  17,H  36)    179.43 -0.000009    0.02    179.45   
   207. D(H  38,C  19,C  18,H  37)     -0.57 -0.000018    0.04     -0.53   
   208. D(H  38,C  19,C  18,C  17)    179.42 -0.000021    0.06    179.48   
   209. D(C  20,C  19,C  18,H  37)    179.96 -0.000003    0.01    179.97   
   210. D(C  20,C  19,C  18,C  17)     -0.04 -0.000007    0.02     -0.01   
   211. D(H  39,C  20,C  19,H  38)     -1.07 -0.000006   -0.04     -1.12   
   212. D(H  39,C  20,C  19,C  18)    178.39 -0.000021   -0.01    178.38   
   213. D(C  15,C  20,C  19,H  38)   -179.38  0.000020   -0.05   -179.43   
   214. D(C  15,C  20,C  19,C  18)      0.09  0.000005   -0.02      0.07   
   215. D(H  39,C  20,C  15,C  16)   -178.36  0.000012   -0.01   -178.37   
   216. D(H  39,C  20,C  15,C  14)      1.58  0.000007   -0.01      1.57   
   217. D(C  19,C  20,C  15,C  16)     -0.05  0.000002   -0.01     -0.06   
   218. D(C  19,C  20,C  15,C  14)    179.89 -0.000003   -0.01    179.88   
   219. D(H  40,C  21,C  14,C  15)      1.60  0.000014   -0.02      1.58   
   220. D(H  40,C  21,C  14,C  13)   -178.36 -0.000003    0.03   -178.33   
   221. D(C  22,C  21,C  14,C  15)    179.98  0.000001    0.02    180.00   
   222. D(C  22,C  21,C  14,C  13)      0.02 -0.000017    0.07      0.09   
   223. D(H  41,C  22,C  21,H  40)     -0.17  0.000080   -0.26     -0.43   
   224. D(H  41,C  22,C  21,C  14)   -178.57  0.000094   -0.30   -178.86   
   225. D(C  11,C  22,C  21,H  40)    178.22  0.000006   -0.11    178.11   
   226. D(C  11,C  22,C  21,C  14)     -0.18  0.000021   -0.14     -0.32   
   227. D(H  41,C  22,C  11,C  12)    178.56 -0.000058    0.24    178.80   
   228. D(H  41,C  22,C  11,N  10)     -1.52 -0.000111    0.31     -1.21   
   229. D(C  21,C  22,C  11,C  12)      0.17 -0.000001    0.08      0.25   
   230. D(C  21,C  22,C  11,N  10)   -179.92 -0.000054    0.15   -179.76   
   231. D(C  25,C  23,N  10,C  11)   -171.72  0.000184   -0.89   -172.61   
   232. D(C  25,C  23,N  10,C   8)      8.04  0.000225   -0.93      7.11   
   233. D(O  24,C  23,N  10,C  11)      4.75 -0.000290    0.54      5.29   
   234. D(O  24,C  23,N  10,C   8)   -175.49 -0.000250    0.50   -174.99   
   235. D(H  42,C  25,C  23,N  10)   -140.12 -0.000665    1.18   -138.93   
   236. D(C  26,C  25,C  23,O  24)    -74.10  0.000225   -0.14    -74.24   
   237. D(C   7,C  25,C  23,O  24)    163.04  0.000347   -0.24    162.80   
   238. D(C   7,C  25,C  23,N  10)    -20.56 -0.000189    0.93    -19.63   
   239. D(C  26,C  25,C   7,H  32)    157.00  0.000104   -0.62    156.37   
   240. D(C  26,C  25,C   7,C   8)    -93.79  0.000094   -0.56    -94.35   
   241. D(C  26,C  25,C   7,C   6)     34.14 -0.000142   -0.53     33.61   
   242. D(C  26,C  25,C  23,N  10)    102.29 -0.000311    1.04    103.32   
   243. D(C  23,C  25,C   7,H  32)    -84.77  0.000319   -0.68    -85.45   
   244. D(C  23,C  25,C   7,C   8)     24.43  0.000309   -0.61     23.82   
   245. D(C  23,C  25,C   7,C   6)    152.37  0.000073   -0.58    151.79   
   246. D(H  43,C  26,C  25,H  42)   -156.23  0.000308    0.06   -156.17   
   247. D(H  43,C  26,C  25,C  23)    -38.59 -0.000443    0.37    -38.22   
   248. D(H  43,C  26,C  25,C   7)     76.71 -0.000014    0.41     77.12   
   249. D(C  27,C  26,C  25,H  42)     84.31  0.000391   -0.06     84.24   
   250. D(C  27,C  26,C  25,C  23)   -158.05 -0.000361    0.25   -157.81   
   251. D(C  27,C  26,C  25,C   7)    -42.75  0.000068    0.29    -42.46   
   252. D(C   5,C  27,C  26,C  25)     59.71 -0.000025    0.06     59.77   
   253. D(C   1,C  27,C  26,H  44)    -57.54  0.000224   -0.22    -57.77   
   254. D(C   1,C  27,C  26,H  43)     61.51  0.000496   -0.40     61.11   
   255. D(C  26,C  27,C   5,H  29)     50.32  0.000212   -0.10     50.22   
   256. D(C  26,C  27,C   5,C   6)    -68.41  0.000284   -0.26    -68.68   
   257. D(C  26,C  27,C   5,C   3)    159.70  0.000017    0.04    159.75   
   258. D(C   1,C  27,C   5,H  29)    -81.20  0.000105    0.11    -81.09   
   259. D(C   1,C  27,C   5,C   6)    160.07  0.000178   -0.06    160.01   
   260. D(C   1,C  27,C   5,C   3)     28.19 -0.000089    0.25     28.43   
   261. D(H  45,C  27,C   1,O   0)    -87.84 -0.000249    0.03    -87.80   
   262. D(C   1,C  27,C  26,C  25)   -178.44  0.000412   -0.26   -178.70   
   263. D(C  26,C  27,C   1,N   2)   -148.57 -0.000013    0.06   -148.51   
   264. D(C  26,C  27,C   1,O   0)     34.39 -0.000030   -0.01     34.38   
   265. D(C   5,C  27,C   1,N   2)    -23.17  0.000248   -0.21    -23.38   
   266. D(C   5,C  27,C  26,H  43)    -60.34  0.000059   -0.08    -60.42   
   267. D(C   5,C  27,C   1,O   0)    159.78  0.000231   -0.28    159.51   
   268. D(C   5,C  27,C  26,H  44)   -179.39 -0.000213    0.09   -179.30   
    ----------------------------------------------------------------------------

Geometry step timings:
Preparation and reading OPT file:      0.000 s ( 0.181 %)
Internal coordinates            :      0.000 s ( 0.317 %)
B/P matrices and projection     :      0.008 s (48.812 %)
Hessian update/contruction      :      0.002 s ( 9.740 %)
Making the step                 :      0.005 s (30.160 %)
Converting the step to Cartesian:      0.001 s ( 3.458 %)
Storing new data                :      0.000 s ( 0.278 %)
Checking convergence            :      0.000 s ( 0.609 %)
Final printing                  :      0.001 s ( 6.437 %)
Total time                      :      0.015 s

Time for energy+gradient        :     92.534 s
Time for complete geometry iter :     92.764 s

         *************************************************************
         *                GEOMETRY OPTIMIZATION CYCLE   7            *
         *************************************************************
---------------------------------
CARTESIAN COORDINATES (ANGSTROEM)
---------------------------------
  O     -5.752548   -2.995658    0.668167
  C     -5.595944   -1.851349    0.330007
  N     -6.333653   -1.187851   -0.650076
  C     -5.874130    0.094732   -0.961309
  O     -6.431850    0.875460   -1.686579
  C     -4.536190    0.219266   -0.247413
  C     -4.041173    1.558634    0.259828
  C     -2.728647    1.354822    1.040139
  C     -1.477875    1.331050    0.167035
  O     -1.304950    1.925693   -0.865474
  N     -0.522557    0.531887    0.816578
  C      0.836435    0.412784    0.396825
  C      1.442278   -0.839220    0.336034
  C      2.763286   -0.947538   -0.071340
  C      3.511968    0.178380   -0.433171
  C      4.920878    0.054282   -0.873922
  C      5.874843    1.017236   -0.520985
  C      7.195399    0.900818   -0.935265
  C      7.593320   -0.180599   -1.713723
  C      6.658207   -1.145089   -2.072892
  C      5.338030   -1.029344   -1.657315
  C      2.880241    1.425625   -0.365149
  C      1.561902    1.548313    0.046554
  C     -1.066188   -0.142498    1.925615
  O     -0.444500   -0.822914    2.699696
  C     -2.567296    0.099017    1.928108
  C     -3.273460   -1.187034    1.403197
  C     -4.643367   -0.801649    0.886516
  H     -7.139019   -1.601103   -1.099269
  H     -3.810940   -0.165545   -0.979724
  H     -4.790198    2.005702    0.918310
  H     -3.862123    2.258236   -0.556937
  H     -2.581372    2.230991    1.682546
  H      0.890472   -1.721162    0.628671
  H      3.226798   -1.925611   -0.084540
  H      5.583664    1.850323    0.106337
  H      7.917426    1.653229   -0.642247
  H      8.622700   -0.270930   -2.037319
  H      6.955405   -1.987125   -2.686005
  H      4.614001   -1.773011   -1.965564
  H      3.419066    2.315819   -0.663061
  H      1.090201    2.520369    0.073390
  H     -2.892679    0.277133    2.953692
  H     -2.692599   -1.633087    0.590157
  H     -3.321224   -1.923377    2.204521
  H     -5.212036   -0.339023    1.707355

----------------------------
CARTESIAN COORDINATES (A.U.)
----------------------------
  NO LB      ZA    FRAG     MASS         X           Y           Z
   0 O     8.0000    0    15.999  -10.870740   -5.660973    1.262652
   1 C     6.0000    0    12.011  -10.574801   -3.498542    0.623622
   2 N     7.0000    0    14.007  -11.968869   -2.244713   -1.228466
   3 C     6.0000    0    12.011  -11.100497    0.179018   -1.816610
   4 O     8.0000    0    15.999  -12.154435    1.654379   -3.187173
   5 C     6.0000    0    12.011   -8.572156    0.414352   -0.467543
   6 C     6.0000    0    12.011   -7.636709    2.945391    0.491004
   7 C     6.0000    0    12.011   -5.156396    2.560242    1.965579
   8 C     6.0000    0    12.011   -2.792780    2.515319    0.315649
   9 O     8.0000    0    15.999   -2.465998    3.639032   -1.635508
  10 N     7.0000    0    14.007   -0.987489    1.005121    1.543108
  11 C     6.0000    0    12.011    1.580634    0.780049    0.749891
  12 C     6.0000    0    12.011    2.725510   -1.585896    0.635013
  13 C     6.0000    0    12.011    5.221855   -1.790587   -0.134814
  14 C     6.0000    0    12.011    6.636657    0.337090   -0.818574
  15 C     6.0000    0    12.011    9.299113    0.102579   -1.651473
  16 C     6.0000    0    12.011   11.101844    1.922298   -0.984518
  17 C     6.0000    0    12.011   13.597333    1.702299   -1.767395
  18 C     6.0000    0    12.011   14.349295   -0.341282   -3.238467
  19 C     6.0000    0    12.011   12.582187   -2.163905   -3.917198
  20 C     6.0000    0    12.011   10.087415   -1.945179   -3.131871
  21 C     6.0000    0    12.011    5.442866    2.694040   -0.690032
  22 C     6.0000    0    12.011    2.951566    2.925888    0.087974
  23 C     6.0000    0    12.011   -2.014804   -0.269283    3.638886
  24 O     8.0000    0    15.999   -0.839984   -1.555082    5.101686
  25 C     6.0000    0    12.011   -4.851486    0.187115    3.643597
  26 C     6.0000    0    12.011   -6.185943   -2.243169    2.651657
  27 C     6.0000    0    12.011   -8.774693   -1.514897    1.675273
  28 H     1.0000    0     1.008  -13.490791   -3.025646   -2.077318
  29 H     1.0000    0     1.008   -7.201633   -0.312834   -1.851410
  30 H     1.0000    0     1.008   -9.052162    3.790228    1.735355
  31 H     1.0000    0     1.008   -7.298354    4.267448   -1.052459
  32 H     1.0000    0     1.008   -4.878086    4.215962    3.179551
  33 H     1.0000    0     1.008    1.682749   -3.252524    1.188015
  34 H     1.0000    0     1.008    6.097764   -3.638877   -0.159757
  35 H     1.0000    0     1.008   10.551596    3.496603    0.200948
  36 H     1.0000    0     1.008   14.961767    3.124151   -1.213670
  37 H     1.0000    0     1.008   16.294542   -0.511984   -3.849975
  38 H     1.0000    0     1.008   13.143811   -3.755123   -5.075814
  39 H     1.0000    0     1.008    8.719199   -3.350506   -3.714377
  40 H     1.0000    0     1.008    6.461098    4.376263   -1.253005
  41 H     1.0000    0     1.008    2.060181    4.762807    0.138687
  42 H     1.0000    0     1.008   -5.466371    0.523706    5.581668
  43 H     1.0000    0     1.008   -5.088274   -3.086087    1.115235
  44 H     1.0000    0     1.008   -6.276203   -3.634656    4.165940
  45 H     1.0000    0     1.008   -9.849321   -0.640661    3.226434

--------------------------------
INTERNAL COORDINATES (ANGSTROEM)
--------------------------------
 O      0   0   0     0.000000000000     0.00000000     0.00000000
 C      1   0   0     1.203462119670     0.00000000     0.00000000
 N      2   1   0     1.394634879042   125.52085757     0.00000000
 C      3   2   1     1.397514649997   114.78408257   186.31068327
 O      4   3   2     1.202748681431   125.27883648   186.92281622
 C      4   3   2     1.521591060016   105.05542511     9.46902786
 C      6   4   3     1.515335559615   121.10680979   210.84696668
 C      7   6   4     1.540502261531   109.32611325   175.11433862
 C      8   7   6     1.525551792297   114.24957608    85.10333620
 O      9   8   7     1.203983778940   126.93226208    31.08733700
 N      9   8   7     1.404706431784   107.56634122   208.35272123
 C     11   9   8     1.427318332368   123.98775818   188.63652390
 C     12  11   9     1.392211899867   120.14677804   225.04144061
 C     13  12  11     1.386632889029   119.84448010   180.06466424
 C     14  13  12     1.399691294527   121.51256260   359.70458668
 C     15  14  13     1.481449001928   121.21332978   180.30927004
 C     16  15  14     1.400675882367   121.00881263   217.02667434
 C     17  16  15     1.388901914188   120.98237106   180.04412966
 C     18  17  16     1.390611224072   120.27998574     0.07349310
 C     19  18  17     1.390568343852   119.44192164   359.94265375
 C     20  19  18     1.388872534688   120.27292002     0.00000000
 C     15  14  13     1.399758848899   117.56755164     0.22134268
 C     22  15  14     1.386567757945   121.49173514     0.08793040
 C     11   9   8     1.407229707232   111.98340043     8.94958232
 O     24  11   9     1.203603553387   125.32626781   184.86092301
 C     24  11   9     1.520414718718   107.85294522     7.12499307
 C     26  24  11     1.558244691181   108.40739638   103.33458011
 C     27  26  24     1.513976944587   108.35659361   202.20273900
 H      3   2   1     1.010527757139   122.64256078     6.42855986
 H      6   4   3     1.100157123329   103.81138910    88.89902509
 H      7   6   4     1.092935580786   109.83723727    55.01519843
 H      7   6   4     1.090233159950   111.71917857   295.76445769
 H      8   7   6     1.096379948413   107.78912620   199.82946877
 H     13  12  11     1.080715716578   119.99142834   358.59707024
 H     14  13  12     1.082425110942   118.82376786   178.21211544
 H     17  16  15     1.082751692871   119.45889725     1.70866107
 H     18  17  16     1.083192787747   119.66051096   180.56534929
 H     19  18  17     1.082819720798   120.27777556   179.95316345
 H     20  19  18     1.083171310780   120.05804648   179.48071080
 H     21  20  19     1.082716922980   119.55187366   178.38258034
 H     22  15  14     1.082372165101   119.65582698   181.66639429
 H     23  22  15     1.080792944521   120.12697365   181.13280250
 H     26  24  11     1.090605628179   108.78676895   221.07015970
 H     27  26  24     1.094256273572   110.25237925   321.78048902
 H     27  26  24     1.089312905860   109.26633869    79.24980571
 H     28  27  26     1.100537938815   108.66370006   301.12453849

---------------------------
INTERNAL COORDINATES (A.U.)
---------------------------
 O      0   0   0     0.000000000000     0.00000000     0.00000000
 C      1   0   0     2.274213818725     0.00000000     0.00000000
 N      2   1   0     2.635477978203   125.52085757     0.00000000
 C      3   2   1     2.640919956637   114.78408257   186.31068327
 O      4   3   2     2.272865615839   125.27883648   186.92281622
 C      4   3   2     2.875390391253   105.05542511     9.46902786
 C      6   4   3     2.863569208665   121.10680979   210.84696668
 C      7   6   4     2.911127382980   109.32611325   175.11433862
 C      8   7   6     2.882875090555   114.24957608    85.10333620
 O      9   8   7     2.275199611880   126.93226208    31.08733700
 N      9   8   7     2.654510454630   107.56634122   208.35272123
 C     11   9   8     2.697240754101   123.98775818   188.63652390
 C     12  11   9     2.630899211134   120.14677804   225.04144061
 C     13  12  11     2.620356408553   119.84448010   180.06466424
 C     14  13  12     2.645033218689   121.51256260   359.70458668
 C     15  14  13     2.799532895014   121.21332978   180.30927004
 C     16  15  14     2.646893820062   121.00881263   217.02667434
 C     17  16  15     2.624644244694   120.98237106   180.04412966
 C     18  17  16     2.627874372253   120.27998574     0.07349310
 C     19  18  17     2.627793340381   119.44192164   359.94265375
 C     20  19  18     2.624588725485   120.27292002     0.00000000
 C     15  14  13     2.645160877952   117.56755164     0.22134268
 C     22  15  14     2.620233328641   121.49173514     0.08793040
 C     11   9   8     2.659278754186   111.98340043     8.94958232
 O     24  11   9     2.274481089716   125.32626781   184.86092301
 C     24  11   9     2.873167428359   107.85294522     7.12499307
 C     26  24  11     2.944655715968   108.40739638   103.33458011
 C     27  26  24     2.861001798340   108.35659361   202.20273900
 H      3   2   1     1.909620711718   122.64256078     6.42855986
 H      6   4   3     2.078995667375   103.81138910    88.89902509
 H      7   6   4     2.065348929703   109.83723727    55.01519843
 H      7   6   4     2.060242094425   111.71917857   295.76445769
 H      8   7   6     2.071857841223   107.78912620   199.82946877
 H     13  12  11     2.042256732956   119.99142834   358.59707024
 H     14  13  12     2.045487020160   118.82376786   178.21211544
 H     17  16  15     2.046104170566   119.45889725     1.70866107
 H     18  17  16     2.046937719081   119.66051096   180.56534929
 H     19  18  17     2.046232724718   120.27777556   179.95316345
 H     20  19  18     2.046897133495   120.05804648   179.48071080
 H     21  20  19     2.046038464995   119.55187366   178.38258034
 H     22  15  14     2.045386967019   119.65582698   181.66639429
 H     23  22  15     2.042402672620   120.12697365   181.13280250
 H     26  24  11     2.060945957372   108.78676895   221.07015970
 H     27  26  24     2.067844677377   110.25237925   321.78048902
 H     27  26  24     2.058503066222   109.26633869    79.24980571
 H     28  27  26     2.079715304350   108.66370006   301.12453849



           ************************************************************
           *        Program running with 16 parallel MPI-processes    *
           *              working on a common directory               *
           ************************************************************
------------------------------------------------------------------------------
                   ___                                                        
                  /   \      - P O W E R E D   B Y -                         
                 /     \                                                     
                 |  |  |   _    _      __       _____    __    __             
                 |  |  |  | |  | |    /  \     |  _  \  |  |  /  |          
                  \  \/   | |  | |   /    \    | | | |  |  | /  /          
                 / \  \   | |__| |  /  /\  \   | |_| |  |  |/  /          
                |  |  |   |  __  | /  /__\  \  |    /   |      \           
                |  |  |   | |  | | |   __   |  |    \   |  |\   \          
                \     /   | |  | | |  |  |  |  | |\  \  |  | \   \       
                 \___/    |_|  |_| |__|  |__|  |_| \__\ |__|  \__/        
                                                                              
                      - O R C A' S   B I G   F R I E N D -                    
                                      &                                       
                       - I N T E G R A L  F E E D E R -                       
                                                                              
 v1 FN, 2020, v2 2021, v3 2022-2024                                           
------------------------------------------------------------------------------


----------------------
SHARK INTEGRAL PACKAGE
----------------------

Number of atoms                             ...     46
Number of basis functions                   ...    976
Number of shells                            ...    380
Maximum angular momentum                    ...      3
Integral batch strategy                     ... SHARK/LIBINT Hybrid
RI-J (if used) integral strategy            ... SPLIT-RIJ (Revised 2003 algorithm where possible)
Printlevel                                  ...      1
Contraction scheme used                     ... SEGMENTED contraction
Prescreening option                         ... SCHWARTZ
   Thresh                                   ... 2.500e-11
   Tcut                                     ... 2.500e-12
   Tpresel                                  ... 2.500e-12 
Coulomb Range Separation                    ... NOT USED
Exchange Range Separation                   ... NOT USED
Multipole approximations                    ... NOT USED
Finite Nucleus Model                        ... NOT USED
CABS basis                                  ... NOT available
Auxiliary Coulomb fitting basis             ... AVAILABLE
   # of basis functions in Aux-J            ...   1570
   # of shells in Aux-J                     ...    510
   Maximum angular momentum in Aux-J        ...      4
Auxiliary J/K fitting basis                 ... NOT available
Auxiliary Correlation fitting basis         ... NOT available
Auxiliary 'external' fitting basis          ... NOT available

Checking pre-screening integrals            ... done (  0.0 sec) Dimension = 380
   => SHARK Basis and OBASIS are compatible. Storing Pre-screening
Shell pair information
Shell pair cut-off parameter TPreSel        ...   2.5e-12
Total number of shell pairs                 ...     72390
Shell pairs after pre-screening             ...     42403
Total number of primitive shell pairs       ...    224116
Primitive shell pairs kept                  ...     86607
          la=0 lb=0:  10620 shell pairs
          la=1 lb=0:  12288 shell pairs
          la=1 lb=1:   3567 shell pairs
          la=2 lb=0:   6010 shell pairs
          la=2 lb=1:   3517 shell pairs
          la=2 lb=2:    878 shell pairs
          la=3 lb=0:   2843 shell pairs
          la=3 lb=1:   1685 shell pairs
          la=3 lb=2:    798 shell pairs
          la=3 lb=3:    197 shell pairs

Checking whether 4 symmetric matrices of dimension 976 fit in memory
:Max Core in MB      =   4096.00
 MB in use           =     62.22
 MB left             =   4033.78
 MB needed           =     14.55
 Data fit in memory  = YES
Calculating RI/J V-Matrix + Cholesky decomp.... done (  0.1 sec)
Calculating Nuclear repulsion               ... done (  0.0 sec) ENN=   2403.818173026912 Eh

Diagonalization of the overlap matrix:
Smallest eigenvalue                        ... 6.577e-06
Time for diagonalization                   ...    0.151 sec
Threshold for overlap eigenvalues          ... 1.000e-07
Number of eigenvalues below threshold      ... 0
Time for construction of square roots      ...    0.067 sec
Total time needed                          ...    0.223 sec

-------------------
DFT GRID GENERATION
-------------------

General Integration Accuracy     IntAcc      ... 4.388
Radial Grid Type                 RadialGrid  ... OptM3 with GC (2021)
Angular Grid (max. ang.)         AngularGrid ... 4 (Lebedev-302)
Angular grid pruning method      GridPruning ... 4 (adaptive)
Weight generation scheme         WeightScheme... mBecke (2022)
Basis function cutoff            BFCut       ... 1.0000e-11
Integration weight cutoff        WCut        ... 1.0000e-14
Partially contracted basis set               ... off
Rotationally invariant grid construction     ... off
Angular grids for H and He will be reduced by one unit

Total number of grid points                  ...   224151
Total number of batches                      ...     3526
Average number of points per batch           ...       63
Average number of grid points per atom       ...     4873

--------------------
COSX GRID GENERATION
--------------------

GRIDX 1
-------
General Integration Accuracy     IntAcc      ... 3.816
Radial Grid Type                 RadialGrid  ... OptM3 with GC (2021)
Angular Grid (max. ang.)         AngularGrid ... 1 (Lebedev-50)
Angular grid pruning method      GridPruning ... 4 (adaptive)
Weight generation scheme         WeightScheme... mBecke (2022)
Basis function cutoff            BFCut       ... 1.0000e-11
Integration weight cutoff        WCut        ... 1.0000e-14
Partially contracted basis set               ... on
Rotationally invariant grid construction     ... off
Angular grids for H and He will be reduced by one unit

Total number of grid points                  ...    28404
Total number of batches                      ...      248
Average number of points per batch           ...      114
Average number of grid points per atom       ...      617
UseSFitting                                  ... on

GRIDX 2
-------
General Integration Accuracy     IntAcc      ... 4.020
Radial Grid Type                 RadialGrid  ... OptM3 with GC (2021)
Angular Grid (max. ang.)         AngularGrid ... 2 (Lebedev-110)
Angular grid pruning method      GridPruning ... 4 (adaptive)
Weight generation scheme         WeightScheme... mBecke (2022)
Basis function cutoff            BFCut       ... 1.0000e-11
Integration weight cutoff        WCut        ... 1.0000e-14
Partially contracted basis set               ... on
Rotationally invariant grid construction     ... off
Angular grids for H and He will be reduced by one unit

Total number of grid points                  ...    62250
Total number of batches                      ...      508
Average number of points per batch           ...      122
Average number of grid points per atom       ...     1353
UseSFitting                                  ... on

GRIDX 3
-------
General Integration Accuracy     IntAcc      ... 4.338
Radial Grid Type                 RadialGrid  ... OptM3 with GC (2021)
Angular Grid (max. ang.)         AngularGrid ... 3 (Lebedev-194)
Angular grid pruning method      GridPruning ... 4 (adaptive)
Weight generation scheme         WeightScheme... mBecke (2022)
Basis function cutoff            BFCut       ... 1.0000e-11
Integration weight cutoff        WCut        ... 1.0000e-14
Partially contracted basis set               ... on
Rotationally invariant grid construction     ... off
Angular grids for H and He will be reduced by one unit

Total number of grid points                  ...   136282
Total number of batches                      ...     1085
Average number of points per batch           ...      125
Average number of grid points per atom       ...     2963
UseSFitting                                  ... on
Grids setup in   1.9 sec
Initializing property integral containers    ... done (  0.0 sec)

SHARK setup successfully completed in   2.6 seconds

Maximum memory used throughout the entire STARTUP-calculation: 104.0 MB


           ************************************************************
           *        Program running with 16 parallel MPI-processes    *
           *              working on a common directory               *
           ************************************************************
Occupation numbers will be reassigned to an Aufbau configuration
             **** ENERGY FILE WAS UPDATED (conjugate_row2_A2_H4.en.tmp) ****
Finished Guess after   0.8 sec
Maximum memory used throughout the entire GUESS-calculation: 99.0 MB


           ************************************************************
           *        Program running with 16 parallel MPI-processes    *
           *              working on a common directory               *
           ************************************************************
----------------------------------------D-I-I-S--------------------------------------------
Iteration    Energy (Eh)           Delta-E    RMSDP     MaxDP     DIISErr   Damp  Time(sec)
-------------------------------------------------------------------------------------------
               ***  Starting incremental Fock matrix formation  ***
    1    -1259.3983243771067464     0.00e+00  2.40e-04  2.37e-03  2.32e-02  0.700   6.7
    2    -1259.4004707309750302    -2.15e-03  2.17e-04  2.21e-03  1.84e-02  0.700   3.3
                               ***Turning on AO-DIIS***
    3    -1259.4021886898922276    -1.72e-03  1.75e-04  1.74e-03  1.39e-02  0.700   3.0
    4    -1259.4034662962858420    -1.28e-03  4.37e-04  4.38e-03  1.01e-02  0.000   2.9
                              *** Initializing SOSCF ***
---------------------------------------S-O-S-C-F--------------------------------------
Iteration    Energy (Eh)           Delta-E    RMSDP     MaxDP     MaxGrad    Time(sec)
--------------------------------------------------------------------------------------
    5    -1259.4066945073668649    -3.23e-03  3.55e-05  8.10e-04  5.62e-04     3.5
               *** Restarting incremental Fock matrix formation ***
    6    -1259.4067019991325651    -7.49e-06  5.15e-05  2.00e-03  1.51e-04     6.5
    7    -1259.4066993069595810     2.69e-06  3.29e-05  1.62e-03  3.78e-04     4.1
    8    -1259.4067050890093924    -5.78e-06  8.47e-06  2.08e-04  2.43e-05     3.7
    9    -1259.4067050892649604    -2.56e-10  3.98e-06  2.70e-04  4.54e-05     3.3
                 **** Energy Check signals convergence ****

               *****************************************************
               *                     SUCCESS                       *
               *           SCF CONVERGED AFTER   9 CYCLES          *
               *****************************************************

Recomputing exchange energy using gridx3       ... done (   10.826 sec)
Old exchange energy                            :    -33.371842303 Eh
New exchange energy                            :    -33.371858590 Eh
Exchange energy change after final integration :     -0.000016287 Eh
Total energy after final integration           :  -1259.406721400 Eh
             **** ENERGY FILE WAS UPDATED (conjugate_row2_A2_H4.en.tmp) ****

----------------
TOTAL SCF ENERGY
----------------

Total Energy       :      -1259.40672139958519 Eh          -34270.19915 eV

Components:
Nuclear Repulsion  :       2403.81817302691206 Eh           65411.21793 eV
Electronic Energy  :      -3663.22487813975113 Eh          -99681.41664 eV
One Electron Energy:      -6489.12878224745054 Eh         -176578.17123 eV
Two Electron Energy:       2825.90390410769942 Eh           76896.75459 eV

Virial components:
Potential Energy   :      -2513.39072822826620 Eh          -68392.83874 eV
Kinetic Energy     :       1253.98400682868123 Eh           34122.63959 eV
Virial Ratio       :          2.00432438894067

DFT components:
N(Alpha)           :       97.999977484060 electrons
N(Beta)            :       97.999977484060 electrons
N(Total)           :      195.999954968119 electrons
E(X)               :     -132.674538887394 Eh       
E(C)               :       -7.941630247606 Eh       
E(XC)              :     -140.616169135000 Eh       

---------------
SCF CONVERGENCE
---------------

  Last Energy change         ...    2.5557e-10  Tolerance :   1.0000e-08
  Last MAX-Density change    ...    2.7011e-04  Tolerance :   1.0000e-07
  Last RMS-Density change    ...    3.9775e-06  Tolerance :   5.0000e-09
  Last DIIS Error            ...    5.6179e-04  Tolerance :   5.0000e-07
  Last Orbital Gradient      ...    4.5416e-05  Tolerance :   1.0000e-05
  Last Orbital Rotation      ...    7.1618e-05  Tolerance :   1.0000e-05


Total SCF time: 0 days 0 hours 0 min 50 sec 
Finished LeanSCF after  51.0 sec

Maximum memory used throughout the entire LEANSCF-calculation: 139.0 MB

-------------------------   --------------------
FINAL SINGLE POINT ENERGY     -1259.406721399585
-------------------------   --------------------



           ************************************************************
           *        Program running with 16 parallel MPI-processes    *
           *              working on a common directory               *
           ************************************************************
------------------------------------------------------------------------------
                         ORCA SCF GRADIENT CALCULATION
------------------------------------------------------------------------------

Nuc. rep. gradient        (SHARK) ... done (  0.0 sec)
HCore & Overlap gradient  (SHARK) ... done (  0.3 sec)
Split-RIJ-J gradient      (SHARK) ... done (  1.8 sec)
COSX-gradient                     ... done ( 18.8 sec)
XC gradient                       ... done (  2.4 sec)

------------------
CARTESIAN GRADIENT
------------------

   1   O   :   -0.000138011   -0.000443846   -0.000063010
   2   C   :   -0.000222763    0.000862753    0.000265658
   3   N   :    0.000344135    0.000126249    0.000201660
   4   C   :    0.000681723   -0.000363276    0.000228118
   5   O   :   -0.000335034    0.000059011   -0.000303018
   6   C   :   -0.000507112   -0.000149004    0.000572178
   7   C   :   -0.000420541   -0.000287506   -0.000139276
   8   C   :    0.000802080   -0.000512098   -0.000041351
   9   C   :   -0.001137511   -0.000912612    0.000416666
  10   O   :    0.000166102    0.000626900   -0.000425054
  11   N   :    0.001598017    0.000379952   -0.000347594
  12   C   :   -0.001445426    0.000284375    0.000502503
  13   C   :    0.000123147   -0.000603425   -0.000039511
  14   C   :   -0.000127485    0.000398653   -0.000204681
  15   C   :    0.000925723   -0.000072552   -0.000256350
  16   C   :   -0.000768427    0.000021473    0.000216836
  17   C   :    0.000391888    0.000503969   -0.000039506
  18   C   :    0.000006041   -0.000146084   -0.000085480
  19   C   :    0.000017963    0.000007900   -0.000021416
  20   C   :    0.000088658    0.000128209    0.000058900
  21   C   :    0.000274563   -0.000533599   -0.000158286
  22   C   :   -0.000030190   -0.000299275    0.000205904
  23   C   :    0.000322704    0.000522895   -0.000058376
  24   C   :   -0.001461302   -0.001063053   -0.000614177
  25   O   :    0.000573934    0.000114773    0.000717543
  26   C   :    0.000621327    0.001645931   -0.000501445
  27   C   :   -0.000269620   -0.000443198   -0.000123578
  28   C   :    0.000574917    0.000258113   -0.000644786
  29   H   :    0.000027938    0.000006080   -0.000003414
  30   H   :   -0.000008859   -0.000028917   -0.000190084
  31   H   :    0.000052367   -0.000038323    0.000178038
  32   H   :    0.000216229   -0.000063828   -0.000073772
  33   H   :    0.000229338    0.000020112    0.000243979
  34   H   :   -0.000378010    0.000062409    0.000170756
  35   H   :    0.000014093   -0.000084845    0.000023388
  36   H   :   -0.000159261   -0.000101840    0.000028639
  37   H   :    0.000068491    0.000032652   -0.000004129
  38   H   :    0.000040876   -0.000003071   -0.000011126
  39   H   :    0.000052657   -0.000035281   -0.000032803
  40   H   :   -0.000141876    0.000129575    0.000067926
  41   H   :    0.000001941    0.000065206   -0.000031469
  42   H   :   -0.000351214   -0.000012583    0.000092352
  43   H   :   -0.000080540   -0.000308757    0.000225236
  44   H   :    0.000145548    0.000353691   -0.000136313
  45   H   :   -0.000107889    0.000047365    0.000096987
  46   H   :   -0.000271331   -0.000151273    0.000036740

Difference to translation invariance:
           :    0.0000000000   -0.0000000000   -0.0000000000

Difference to rotation invariance:
           :    0.0004165331   -0.0001084008   -0.0000129600

Norm of the Cartesian gradient     ...    0.0050614541
RMS gradient                       ...    0.0004308596
MAX gradient                       ...    0.0016459312

-------
TIMINGS
-------

Total SCF gradient time     ....       23.288 sec

Densities                   ....       0.007 sec  (  0.0%)
One electron gradient       ....       0.321 sec  (  1.4%)
RI-J Coulomb gradient       ....       1.778 sec  (  7.6%)
COSX gradient               ....      18.786 sec  ( 80.7%)
XC gradient                 ....       2.395 sec  ( 10.3%)

Maximum memory used throughout the entire SCFGRAD-calculation: 164.6 MB
------------------------------------------------------------------------------
                         ORCA GEOMETRY RELAXATION STEP
------------------------------------------------------------------------------

Reading the OPT-File                    .... done
Getting information on internals        .... done
Copying old internal coords+grads       .... done
Making the new internal coordinates     .... (2022 redundants) done
Validating the new internal coordinates .... (2022 redundants) done
Calculating the B-matrix                .... done
Calculating the G,G- and P matrices     .... done
Transforming gradient to internals      .... done
Projecting the internal gradient        .... done
Number of atoms                         ....  46
Number of internal coordinates          .... 268
Current Energy                          .... -1259.406721400 Eh
Current gradient norm                   ....     0.005061454 Eh/bohr
Maximum allowed component of the step   ....  0.300
Current trust radius                    ....  0.700
Updating the Hessian (BFGS)             .... done
Forming the augmented Hessian           .... done
Diagonalizing the augmented Hessian     .... done
Last element of RFO vector              ....  0.998499710
Lowest eigenvalues of augmented Hessian:
 -0.000078158  0.005472748  0.012916934  0.015155309  0.016111189
Length of the computed step             ....  0.054839267
The final length of the internal step   ....  0.054839267
Converting the step to Cartesian space:
 Initial RMS(Int)=    0.0033498414
Transforming coordinates:
 Iter   0:  RMS(Cart)=    0.0201629816 RMS(Int)=    0.3837819913
done
Storing new coordinates                 .... done
The predicted energy change is          ....    -0.000039197
Previously predicted energy change      ....    -0.000145992
Actually observed energy change         ....    -0.000162546
Ratio of predicted to observed change   ....     1.113384805
New trust radius                        ....     0.700000000

                                .--------------------.
          ----------------------|Geometry convergence|-------------------------
          Item                value                   Tolerance       Converged
          ---------------------------------------------------------------------
          Energy change      -0.0001625456            0.0000050000      NO
          RMS gradient        0.0001937241            0.0001000000      NO
          MAX gradient        0.0011676228            0.0003000000      NO
          RMS step            0.0033498414            0.0020000000      NO
          MAX step            0.0178520061            0.0040000000      NO
          -------------------------------------------------------------------------
          ........................................................
          Max(Bonds)      0.0018      Max(Angles)    0.20
          Max(Dihed)        1.02      Max(Improp)    0.00
          ---------------------------------------------------------------------

The optimization has not yet converged - more geometry cycles are needed


    ---------------------------------------------------------------------------
                         Redundant Internal Coordinates
                            (Angstroem and degrees)

        Definition                    Value    dE/dq     Step     New-Value
    ----------------------------------------------------------------------------
     1. B(C   1,O   0)                1.2035  0.000424  0.0000    1.2035   
     2. B(N   2,C   1)                1.3946 -0.000431 -0.0002    1.3945   
     3. B(C   3,N   2)                1.3975 -0.000362 -0.0003    1.3972   
     4. B(O   4,C   3)                1.2027  0.000375  0.0001    1.2028   
     5. B(C   5,C   3)                1.5216 -0.000322  0.0003    1.5219   
     6. B(C   6,C   5)                1.5153 -0.000180  0.0002    1.5156   
     7. B(C   7,C   6)                1.5405  0.000155 -0.0003    1.5402   
     8. B(C   8,C   7)                1.5256 -0.000692  0.0014    1.5269   
     9. B(O   9,C   8)                1.2040  0.000700 -0.0002    1.2038   
    10. B(N  10,C   8)                1.4047  0.000119 -0.0012    1.4035   
    11. B(C  11,N  10)                1.4273 -0.001168  0.0018    1.4291   
    12. B(C  12,C  11)                1.3922  0.000213 -0.0004    1.3918   
    13. B(C  13,C  12)                1.3866  0.000354 -0.0002    1.3864   
    14. B(C  14,C  13)                1.3997  0.000272 -0.0002    1.3995   
    15. B(C  15,C  14)                1.4814 -0.000128  0.0000    1.4815   
    16. B(C  16,C  15)                1.4007  0.000412 -0.0004    1.4003   
    17. B(C  17,C  16)                1.3889  0.000142 -0.0001    1.3888   
    18. B(C  18,C  17)                1.3906  0.000004 -0.0000    1.3906   
    19. B(C  19,C  18)                1.3906  0.000002 -0.0000    1.3905   
    20. B(C  20,C  19)                1.3889  0.000150 -0.0001    1.3888   
    21. B(C  20,C  15)                1.4007  0.000389 -0.0004    1.4003   
    22. B(C  21,C  14)                1.3998  0.000263 -0.0002    1.3995   
    23. B(C  22,C  21)                1.3866  0.000345 -0.0002    1.3864   
    24. B(C  22,C  11)                1.3923  0.000291 -0.0005    1.3918   
    25. B(C  23,N  10)                1.4072  0.000400 -0.0016    1.4057   
    26. B(O  24,C  23)                1.2036  0.000692 -0.0002    1.2034   
    27. B(C  25,C  23)                1.5204 -0.000501  0.0008    1.5212   
    28. B(C  25,C   7)                1.5465 -0.000788  0.0017    1.5482   
    29. B(C  26,C  25)                1.5582  0.000115 -0.0006    1.5577   
    30. B(C  27,C   5)                1.5296 -0.000473  0.0009    1.5305   
    31. B(C  27,C   1)                1.5228 -0.000246  0.0002    1.5230   
    32. B(C  27,C  26)                1.5140 -0.000208  0.0003    1.5143   
    33. B(H  28,N   2)                1.0105 -0.000023  0.0000    1.0105   
    34. B(H  29,C   5)                1.1002  0.000131 -0.0003    1.0998   
    35. B(H  30,C   6)                1.0929  0.000054 -0.0001    1.0929   
    36. B(H  31,C   6)                1.0902  0.000051 -0.0000    1.0902   
    37. B(H  32,C   7)                1.0964  0.000190 -0.0004    1.0960   
    38. B(H  33,C  12)                1.0807  0.000188 -0.0003    1.0804   
    39. B(H  34,C  13)                1.0824  0.000082 -0.0002    1.0822   
    40. B(H  35,C  16)                1.0828 -0.000020  0.0001    1.0828   
    41. B(H  36,C  17)                1.0832  0.000067 -0.0001    1.0831   
    42. B(H  37,C  18)                1.0828  0.000042 -0.0001    1.0828   
    43. B(H  38,C  19)                1.0832  0.000061 -0.0001    1.0831   
    44. B(H  39,C  20)                1.0827 -0.000013  0.0000    1.0828   
    45. B(H  40,C  21)                1.0824  0.000064 -0.0002    1.0822   
    46. B(H  41,C  22)                1.0808  0.000145 -0.0002    1.0806   
    47. B(H  42,C  25)                1.0906  0.000186 -0.0003    1.0903   
    48. B(H  43,C  26)                1.0943  0.000033 -0.0001    1.0942   
    49. B(H  44,C  26)                1.0893  0.000044 -0.0000    1.0893   
    50. B(H  45,C  27)                1.1005  0.000105 -0.0003    1.1003   
    51. A(O   0,C   1,N   2)          125.52 -0.000190    0.06    125.58   
    52. A(O   0,C   1,C  27)          129.36  0.000228   -0.11    129.25   
    53. A(N   2,C   1,C  27)          105.06 -0.000032    0.03    105.09   
    54. A(C   1,N   2,H  28)          122.64 -0.000049    0.04    122.69   
    55. A(C   1,N   2,C   3)          114.78  0.000097   -0.08    114.70   
    56. A(C   3,N   2,H  28)          122.57 -0.000048    0.04    122.61   
    57. A(N   2,C   3,C   5)          105.06 -0.000063    0.04    105.10   
    58. A(O   4,C   3,C   5)          129.61  0.000318   -0.12    129.49   
    59. A(N   2,C   3,O   4)          125.28 -0.000253    0.08    125.36   
    60. A(C   3,C   5,C  27)          103.39  0.000067   -0.12    103.27   
    61. A(C   3,C   5,H  29)          103.81 -0.000170    0.11    103.92   
    62. A(C   6,C   5,H  29)          108.46  0.000013    0.02    108.48   
    63. A(C  27,C   5,H  29)          107.83  0.000046    0.09    107.92   
    64. A(C   3,C   5,C   6)          121.11  0.000142   -0.09    121.02   
    65. A(C   6,C   5,C  27)          111.39 -0.000104    0.01    111.39   
    66. A(C   5,C   6,H  30)          109.84  0.000047   -0.04    109.80   
    67. A(C   5,C   6,C   7)          109.33  0.000114    0.01    109.33   
    68. A(C   7,C   6,H  31)          108.93 -0.000277    0.11    109.05   
    69. A(C   5,C   6,H  31)          111.72  0.000001   -0.02    111.70   
    70. A(H  30,C   6,H  31)          107.54  0.000196   -0.11    107.44   
    71. A(C   7,C   6,H  30)          109.44 -0.000086    0.04    109.48   
    72. A(C   8,C   7,H  32)          103.75 -0.000007    0.03    103.78   
    73. A(C   6,C   7,H  32)          107.79  0.000259   -0.12    107.67   
    74. A(C   6,C   7,C   8)          114.25 -0.000179    0.03    114.28   
    75. A(C   8,C   7,C  25)          103.32  0.000223   -0.02    103.30   
    76. A(C   6,C   7,C  25)          119.16 -0.000046   -0.02    119.13   
    77. A(C  25,C   7,H  32)          107.37 -0.000264    0.12    107.48   
    78. A(O   9,C   8,N  10)          125.44  0.000082    0.00    125.44   
    79. A(C   7,C   8,O   9)          126.93 -0.000044   -0.07    126.86   
    80. A(C   7,C   8,N  10)          107.57 -0.000054    0.06    107.62   
    81. A(C   8,N  10,C  23)          111.98 -0.000213    0.10    112.08   
    82. A(C   8,N  10,C  11)          123.99  0.000115   -0.05    123.94   
    83. A(C  11,N  10,C  23)          124.03  0.000099   -0.05    123.98   
    84. A(C  12,C  11,C  22)          119.72  0.000016   -0.04    119.67   
    85. A(N  10,C  11,C  22)          120.14  0.000153   -0.00    120.13   
    86. A(N  10,C  11,C  12)          120.15 -0.000169    0.05    120.19   
    87. A(C  13,C  12,H  33)          120.15  0.000437   -0.14    120.00   
    88. A(C  11,C  12,H  33)          119.99 -0.000324    0.08    120.07   
    89. A(C  11,C  12,C  13)          119.84 -0.000113    0.06    119.91   
    90. A(C  12,C  13,C  14)          121.51  0.000280   -0.08    121.44   
    91. A(C  14,C  13,H  34)          119.65 -0.000109    0.04    119.68   
    92. A(C  12,C  13,H  34)          118.82 -0.000171    0.04    118.87   
    93. A(C  15,C  14,C  21)          121.22  0.000162   -0.03    121.19   
    94. A(C  13,C  14,C  21)          117.57 -0.000338    0.07    117.64   
    95. A(C  13,C  14,C  15)          121.21  0.000176   -0.04    121.17   
    96. A(C  16,C  15,C  20)          118.03 -0.000145   -0.00    118.03   
    97. A(C  14,C  15,C  20)          120.96  0.000083   -0.00    120.95   
    98. A(C  14,C  15,C  16)          121.01  0.000062    0.01    121.01   
    99. A(C  15,C  16,C  17)          120.98 -0.000015    0.02    121.00   
   100. A(C  17,C  16,H  35)          119.54  0.000197   -0.08    119.46   
   101. A(C  15,C  16,H  35)          119.46 -0.000182    0.06    119.52   
   102. A(C  16,C  17,C  18)          120.28  0.000072   -0.02    120.26   
   103. A(C  18,C  17,H  36)          120.06 -0.000072    0.01    120.07   
   104. A(C  16,C  17,H  36)          119.66  0.000001    0.00    119.66   
   105. A(C  17,C  18,C  19)          119.44  0.000031    0.00    119.44   
   106. A(C  19,C  18,H  37)          120.28 -0.000015   -0.00    120.28   
   107. A(C  17,C  18,H  37)          120.28 -0.000016   -0.00    120.28   
   108. A(C  18,C  19,C  20)          120.27  0.000066   -0.02    120.26   
   109. A(C  20,C  19,H  38)          119.67  0.000005    0.00    119.67   
   110. A(C  18,C  19,H  38)          120.06 -0.000071    0.01    120.07   
   111. A(C  15,C  20,C  19)          120.99 -0.000008    0.02    121.01   
   112. A(C  19,C  20,H  39)          119.55  0.000207   -0.07    119.48   
   113. A(C  15,C  20,H  39)          119.44 -0.000200    0.06    119.50   
   114. A(C  14,C  21,C  22)          121.49  0.000233   -0.07    121.42   
   115. A(C  22,C  21,H  40)          118.83 -0.000145    0.04    118.87   
   116. A(C  14,C  21,H  40)          119.66 -0.000088    0.03    119.69   
   117. A(C  11,C  22,C  21)          119.87 -0.000077    0.06    119.92   
   118. A(C  21,C  22,H  41)          120.13  0.000377   -0.13    120.00   
   119. A(C  11,C  22,H  41)          119.99 -0.000301    0.07    120.07   
   120. A(O  24,C  23,C  25)          126.78  0.000264   -0.10    126.68   
   121. A(N  10,C  23,C  25)          107.85 -0.000157    0.02    107.88   
   122. A(N  10,C  23,O  24)          125.33 -0.000087    0.06    125.39   
   123. A(C  26,C  25,H  42)          108.44 -0.000266    0.09    108.53   
   124. A(C  23,C  25,H  42)          108.79  0.000005    0.09    108.88   
   125. A(C   7,C  25,H  42)          112.10  0.000245   -0.20    111.90   
   126. A(C  23,C  25,C  26)          108.41 -0.000113    0.01    108.42   
   127. A(C   7,C  25,C  26)          115.44 -0.000070    0.08    115.51   
   128. A(C   7,C  25,C  23)          103.36  0.000216   -0.06    103.30   
   129. A(C  25,C  26,C  27)          108.36  0.000103    0.04    108.40   
   130. A(C  27,C  26,H  44)          112.55 -0.000122   -0.03    112.52   
   131. A(C  25,C  26,H  44)          109.27 -0.000028    0.01    109.27   
   132. A(C  27,C  26,H  43)          109.30  0.000060    0.01    109.31   
   133. A(C  25,C  26,H  43)          110.25 -0.000221    0.10    110.36   
   134. A(H  43,C  26,H  44)          107.12  0.000199   -0.13    106.99   
   135. A(C   5,C  27,C  26)          111.07  0.000019    0.01    111.08   
   136. A(C   1,C  27,C  26)          121.01  0.000030   -0.05    120.97   
   137. A(C  26,C  27,H  45)          108.66  0.000194   -0.03    108.63   
   138. A(C   1,C  27,C   5)          103.47  0.000005   -0.10    103.37   
   139. A(C   5,C  27,H  45)          107.97  0.000174    0.06    108.03   
   140. A(C   1,C  27,H  45)          103.83 -0.000427    0.13    103.96   
   141. D(C   3,N   2,C   1,C  27)      9.05 -0.000081    0.12      9.17   
   142. D(H  28,N   2,C   1,C  27)   -170.83 -0.000084    0.17   -170.66   
   143. D(C   3,N   2,C   1,O   0)   -173.69  0.000058   -0.11   -173.80   
   144. D(H  28,N   2,C   1,O   0)      6.43  0.000056   -0.06      6.37   
   145. D(C   5,C   3,N   2,C   1)      9.47 -0.000018    0.12      9.59   
   146. D(O   4,C   3,N   2,H  28)      6.81  0.000013    0.03      6.84   
   147. D(C   5,C   3,N   2,H  28)   -170.65 -0.000015    0.07   -170.58   
   148. D(O   4,C   3,N   2,C   1)   -173.08  0.000010    0.08   -172.99   
   149. D(C  27,C   5,C   3,O   4)    159.10  0.000072   -0.26    158.84   
   150. D(C   6,C   5,C   3,O   4)     33.55  0.000050   -0.10     33.44   
   151. D(C  27,C   5,C   3,N   2)    -23.60  0.000080   -0.29    -23.89   
   152. D(H  29,C   5,C   3,N   2)     88.90  0.000093   -0.20     88.70   
   153. D(C   6,C   5,C   3,N   2)   -149.15  0.000059   -0.13   -149.29   
   154. D(C   7,C   6,C   5,C  27)     53.32  0.000007    0.06     53.38   
   155. D(C   7,C   6,C   5,H  29)    -65.19  0.000004   -0.07    -65.26   
   156. D(C   7,C   6,C   5,C   3)    175.11  0.000123   -0.18    174.94   
   157. D(H  30,C   6,C   5,H  29)    174.71  0.000010   -0.10    174.61   
   158. D(H  30,C   6,C   5,C   3)     55.02  0.000129   -0.20     54.81   
   159. D(H  30,C   6,C   5,C  27)    -66.77  0.000013    0.03    -66.74   
   160. D(C  25,C   7,C   6,H  30)     82.71 -0.000020    0.04     82.75   
   161. D(C  25,C   7,C   6,C   5)    -37.63 -0.000096    0.05    -37.57   
   162. D(C   8,C   7,C   6,H  31)    -37.23  0.000118   -0.02    -37.26   
   163. D(C   8,C   7,C   6,C   5)     85.10  0.000016    0.03     85.14   
   164. D(C  25,C   7,C   6,H  31)   -159.96  0.000007   -0.01   -159.97   
   165. D(C   8,C   7,C   6,H  30)   -154.56  0.000091    0.02   -154.54   
   166. D(N  10,C   8,C   7,C  25)    -20.67 -0.000145    0.38    -20.29   
   167. D(O   9,C   8,C   7,H  32)    -85.99 -0.000010   -0.17    -86.16   
   168. D(O   9,C   8,C   7,C   6)     31.09  0.000208   -0.28     30.80   
   169. D(O   9,C   8,C   7,C  25)    162.06  0.000200   -0.31    161.76   
   170. D(N  10,C   8,C   7,C   6)   -151.65 -0.000137    0.40   -151.25   
   171. D(C  11,N  10,C   8,C   7)   -171.36  0.000222   -0.50   -171.86   
   172. D(C  23,N  10,C   8,O   9)   -173.73 -0.000088    0.29   -173.45   
   173. D(C  23,N  10,C   8,C   7)      8.95  0.000255   -0.48      8.47   
   174. D(C  11,N  10,C   8,O   9)      5.95 -0.000120    0.27      6.22   
   175. D(C  22,C  11,N  10,C  23)   -135.30 -0.000041    0.27   -135.03   
   176. D(C  22,C  11,N  10,C   8)     45.05 -0.000003    0.29     45.34   
   177. D(C  12,C  11,N  10,C  23)     44.69 -0.000026    0.26     44.96   
   178. D(C  12,C  11,N  10,C   8)   -134.96  0.000011    0.29   -134.67   
   179. D(H  33,C  12,C  11,C  22)    178.59 -0.000025    0.15    178.74   
   180. D(H  33,C  12,C  11,N  10)     -1.40 -0.000040    0.16     -1.25   
   181. D(C  13,C  12,C  11,C  22)      0.06 -0.000017    0.06      0.11   
   182. D(C  13,C  12,C  11,N  10)   -179.94 -0.000032    0.06   -179.88   
   183. D(H  34,C  13,C  12,H  33)     -0.32  0.000015   -0.10     -0.42   
   184. D(C  14,C  13,C  12,H  33)   -178.83  0.000014   -0.11   -178.93   
   185. D(C  14,C  13,C  12,C  11)     -0.30 -0.000006   -0.01     -0.31   
   186. D(H  34,C  13,C  12,C  11)    178.21 -0.000004   -0.00    178.21   
   187. D(C  21,C  14,C  13,H  34)   -178.27  0.000014   -0.03   -178.31   
   188. D(C  21,C  14,C  13,C  12)      0.22  0.000015   -0.02      0.20   
   189. D(C  15,C  14,C  13,H  34)      1.81  0.000027   -0.05      1.76   
   190. D(C  15,C  14,C  13,C  12)   -179.69  0.000027   -0.04   -179.74   
   191. D(C  20,C  15,C  14,C  21)   -142.82 -0.000157    0.97   -141.85   
   192. D(C  20,C  15,C  14,C  13)     37.09 -0.000171    0.99     38.08   
   193. D(C  16,C  15,C  14,C  21)     37.12 -0.000167    1.00     38.12   
   194. D(C  16,C  15,C  14,C  13)   -142.97 -0.000180    1.02   -141.95   
   195. D(H  35,C  16,C  15,C  20)   -178.35  0.000014   -0.05   -178.40   
   196. D(H  35,C  16,C  15,C  14)      1.71  0.000023   -0.08      1.63   
   197. D(C  17,C  16,C  15,C  20)     -0.02  0.000003    0.00     -0.02   
   198. D(C  17,C  16,C  15,C  14)   -179.96  0.000012   -0.03   -179.99   
   199. D(C  18,C  17,C  16,C  15)      0.07  0.000000   -0.00      0.07   
   200. D(C  18,C  17,C  16,H  35)    178.41 -0.000017    0.05    178.45   
   201. D(H  36,C  17,C  16,H  35)     -1.10 -0.000018    0.04     -1.06   
   202. D(H  36,C  17,C  16,C  15)   -179.43 -0.000000   -0.01   -179.44   
   203. D(C  19,C  18,C  17,C  16)     -0.06 -0.000004    0.01     -0.05   
   204. D(H  37,C  18,C  17,H  36)     -0.54  0.000001    0.01     -0.53   
   205. D(H  37,C  18,C  17,C  16)    179.95 -0.000000    0.00    179.95   
   206. D(C  19,C  18,C  17,H  36)    179.45 -0.000003    0.01    179.46   
   207. D(H  38,C  19,C  18,H  37)     -0.53 -0.000004    0.02     -0.51   
   208. D(H  38,C  19,C  18,C  17)    179.48 -0.000001    0.02    179.50   
   209. D(C  20,C  19,C  18,H  37)    179.97  0.000001   -0.00    179.97   
   210. D(C  20,C  19,C  18,C  17)     -0.01  0.000004   -0.01     -0.02   
   211. D(H  39,C  20,C  19,H  38)     -1.11 -0.000021    0.05     -1.07   
   212. D(H  39,C  20,C  19,C  18)    178.38 -0.000026    0.07    178.45   
   213. D(C  15,C  20,C  19,H  38)   -179.43  0.000004   -0.02   -179.44   
   214. D(C  15,C  20,C  19,C  18)      0.07 -0.000002    0.00      0.07   
   215. D(H  39,C  20,C  15,C  16)   -178.37  0.000016   -0.06   -178.43   
   216. D(H  39,C  20,C  15,C  14)      1.57  0.000006   -0.03      1.54   
   217. D(C  19,C  20,C  15,C  16)     -0.06 -0.000002   -0.00     -0.06   
   218. D(C  19,C  20,C  15,C  14)    179.88 -0.000011    0.03    179.91   
   219. D(H  40,C  21,C  14,C  15)      1.58  0.000002   -0.01      1.57   
   220. D(H  40,C  21,C  14,C  13)   -178.33  0.000015   -0.03   -178.37   
   221. D(C  22,C  21,C  14,C  15)    180.00 -0.000014    0.04    180.04   
   222. D(C  22,C  21,C  14,C  13)      0.09 -0.000001    0.02      0.11   
   223. D(H  41,C  22,C  21,H  40)     -0.43  0.000011   -0.07     -0.51   
   224. D(H  41,C  22,C  21,C  14)   -178.87  0.000026   -0.12   -178.99   
   225. D(C  11,C  22,C  21,H  40)    178.11 -0.000035    0.08    178.19   
   226. D(C  11,C  22,C  21,C  14)     -0.32 -0.000020    0.03     -0.29   
   227. D(H  41,C  22,C  11,C  12)    178.79 -0.000008    0.09    178.89   
   228. D(H  41,C  22,C  11,N  10)     -1.21  0.000007    0.09     -1.12   
   229. D(C  21,C  22,C  11,C  12)      0.24  0.000028   -0.06      0.18   
   230. D(C  21,C  22,C  11,N  10)   -179.76  0.000043   -0.07   -179.83   
   231. D(C  25,C  23,N  10,C  11)   -172.56 -0.000298    0.42   -172.14   
   232. D(C  25,C  23,N  10,C   8)      7.12 -0.000331    0.40      7.53   
   233. D(O  24,C  23,N  10,C  11)      5.17  0.000237   -0.52      4.65   
   234. D(O  24,C  23,N  10,C   8)   -175.14  0.000205   -0.54   -175.68   
   235. D(H  42,C  25,C  23,N  10)   -138.93 -0.000180    0.08   -138.85   
   236. D(C  26,C  25,C  23,O  24)    -74.36 -0.000337    0.72    -73.64   
   237. D(C   7,C  25,C  23,O  24)    162.67 -0.000317    0.66    163.32   
   238. D(C   7,C  25,C  23,N  10)    -19.64  0.000217   -0.14    -19.78   
   239. D(C  26,C  25,C   7,H  32)    156.37  0.000089   -0.25    156.12   
   240. D(C  26,C  25,C   7,C   8)    -94.37  0.000079   -0.18    -94.54   
   241. D(C  26,C  25,C   7,C   6)     33.61 -0.000000   -0.17     33.44   
   242. D(C  26,C  25,C  23,N  10)    103.33  0.000198   -0.08    103.25   
   243. D(C  23,C  25,C   7,H  32)    -85.45  0.000058   -0.24    -85.69   
   244. D(C  23,C  25,C   7,C   8)     23.82  0.000047   -0.17     23.65   
   245. D(C  23,C  25,C   7,C   6)    151.80 -0.000032   -0.16    151.64   
   246. D(H  43,C  26,C  25,H  42)   -156.17  0.000052    0.15   -156.02   
   247. D(H  43,C  26,C  25,C  23)    -38.22 -0.000152    0.32    -37.90   
   248. D(H  43,C  26,C  25,C   7)     77.12 -0.000000    0.30     77.41   
   249. D(C  27,C  26,C  25,H  42)     84.25  0.000046    0.05     84.30   
   250. D(C  27,C  26,C  25,C  23)   -157.80 -0.000159    0.22   -157.58   
   251. D(C  27,C  26,C  25,C   7)    -42.46 -0.000007    0.19    -42.27   
   252. D(C   5,C  27,C  26,C  25)     59.75  0.000004   -0.13     59.62   
   253. D(C   1,C  27,C  26,H  44)    -57.77  0.000011   -0.29    -58.06   
   254. D(C   1,C  27,C  26,H  43)     61.11  0.000224   -0.46     60.65   
   255. D(C  26,C  27,C   5,H  29)     50.22  0.000076    0.09     50.30   
   256. D(C  26,C  27,C   5,C   6)    -68.68  0.000092   -0.00    -68.68   
   257. D(C  26,C  27,C   5,C   3)    159.75 -0.000067    0.19    159.94   
   258. D(C   1,C  27,C   5,H  29)    -81.09  0.000023    0.21    -80.88   
   259. D(C   1,C  27,C   5,C   6)    160.01  0.000039    0.13    160.14   
   260. D(C   1,C  27,C   5,C   3)     28.44 -0.000121    0.32     28.76   
   261. D(H  45,C  27,C   1,O   0)    -87.81  0.000034    0.00    -87.80   
   262. D(C   1,C  27,C  26,C  25)   -178.71  0.000053   -0.31   -179.02   
   263. D(C  26,C  27,C   1,N   2)   -148.51  0.000076   -0.19   -148.70   
   264. D(C  26,C  27,C   1,O   0)     34.38 -0.000055    0.04     34.41   
   265. D(C   5,C  27,C   1,N   2)    -23.38  0.000128   -0.29    -23.68   
   266. D(C   5,C  27,C  26,H  43)    -60.42  0.000175   -0.29    -60.71   
   267. D(C   5,C  27,C   1,O   0)    159.50 -0.000003   -0.07    159.43   
   268. D(C   5,C  27,C  26,H  44)   -179.30 -0.000038   -0.12   -179.42   
    ----------------------------------------------------------------------------

Geometry step timings:
Preparation and reading OPT file:      0.000 s ( 0.201 %)
Internal coordinates            :      0.000 s ( 0.299 %)
B/P matrices and projection     :      0.008 s (48.877 %)
Hessian update/contruction      :      0.002 s (10.253 %)
Making the step                 :      0.005 s (29.773 %)
Converting the step to Cartesian:      0.001 s ( 3.318 %)
Storing new data                :      0.000 s ( 0.299 %)
Checking convergence            :      0.000 s ( 0.519 %)
Final printing                  :      0.001 s ( 6.461 %)
Total time                      :      0.015 s

Time for energy+gradient        :     78.998 s
Time for complete geometry iter :     79.220 s

         *************************************************************
         *                GEOMETRY OPTIMIZATION CYCLE   8            *
         *************************************************************
---------------------------------
CARTESIAN COORDINATES (ANGSTROEM)
---------------------------------
  O     -5.731871   -3.004822    0.670105
  C     -5.581691   -1.860570    0.328684
  N     -6.321715   -1.203122   -0.653456
  C     -5.868430    0.081455   -0.964077
  O     -6.428211    0.860507   -1.689694
  C     -4.531026    0.213450   -0.249893
  C     -4.044037    1.557289    0.253807
  C     -2.733329    1.363084    1.039123
  C     -1.477935    1.342290    0.170212
  O     -1.306764    1.930012   -0.866303
  N     -0.524483    0.543748    0.820593
  C      0.835147    0.420625    0.398049
  C      1.437589   -0.832438    0.334220
  C      2.757724   -0.944746   -0.074079
  C      3.508550    0.180015   -0.434178
  C      4.917122    0.052730   -0.875182
  C      5.878027    1.001018   -0.503499
  C      7.198341    0.881494   -0.917359
  C      7.588801   -0.189052   -1.714376
  C      6.646492   -1.139180   -2.092451
  C      5.326721   -1.019755   -1.676973
  C      2.881093    1.429062   -0.364267
  C      1.563501    1.553928    0.048437
  C     -1.065576   -0.125821    1.931816
  O     -0.445231   -0.811257    2.702262
  C     -2.568531    0.109444    1.932532
  C     -3.268868   -1.181204    1.412707
  C     -4.638479   -0.803879    0.888401
  H     -7.124143   -1.621182   -1.103499
  H     -3.802570   -0.170302   -0.979075
  H     -4.797871    2.003051    0.907530
  H     -3.868006    2.255029   -0.565150
  H     -2.594620    2.243222    1.677347
  H      0.884658   -1.714399    0.623525
  H      3.218325   -1.923963   -0.089519
  H      5.593420    1.825969    0.137555
  H      7.925700    1.622652   -0.609674
  H      8.617956   -0.282043   -2.037762
  H      6.937729   -1.972658   -2.719751
  H      4.598180   -1.752957   -1.999500
  H      3.422403    2.318146   -0.660400
  H      1.096680    2.528050    0.078328
  H     -2.896389    0.293410    2.955984
  H     -2.684220   -1.632738    0.605509
  H     -3.317583   -1.912953    2.218126
  H     -5.212576   -0.341556    1.705264

----------------------------
CARTESIAN COORDINATES (A.U.)
----------------------------
  NO LB      ZA    FRAG     MASS         X           Y           Z
   0 O     8.0000    0    15.999  -10.831666   -5.678291    1.266314
   1 C     6.0000    0    12.011  -10.547867   -3.515968    0.621123
   2 N     7.0000    0    14.007  -11.946311   -2.273572   -1.234854
   3 C     6.0000    0    12.011  -11.089725    0.153927   -1.821842
   4 O     8.0000    0    15.999  -12.147559    1.626122   -3.193059
   5 C     6.0000    0    12.011   -8.562399    0.403362   -0.472228
   6 C     6.0000    0    12.011   -7.642123    2.942851    0.479626
   7 C     6.0000    0    12.011   -5.165244    2.575856    1.963657
   8 C     6.0000    0    12.011   -2.792893    2.536561    0.321655
   9 O     8.0000    0    15.999   -2.469427    3.647195   -1.637075
  10 N     7.0000    0    14.007   -0.991130    1.027534    1.550697
  11 C     6.0000    0    12.011    1.578198    0.794865    0.752204
  12 C     6.0000    0    12.011    2.716649   -1.573081    0.631584
  13 C     6.0000    0    12.011    5.211343   -1.785312   -0.139989
  14 C     6.0000    0    12.011    6.630199    0.340179   -0.820478
  15 C     6.0000    0    12.011    9.292015    0.099646   -1.653854
  16 C     6.0000    0    12.011   11.107861    1.891650   -0.951475
  17 C     6.0000    0    12.011   13.602893    1.665783   -1.733558
  18 C     6.0000    0    12.011   14.340755   -0.357257   -3.239702
  19 C     6.0000    0    12.011   12.560049   -2.152737   -3.954160
  20 C     6.0000    0    12.011   10.066044   -1.927057   -3.169019
  21 C     6.0000    0    12.011    5.444477    2.700535   -0.688365
  22 C     6.0000    0    12.011    2.954589    2.936498    0.091532
  23 C     6.0000    0    12.011   -2.013647   -0.237768    3.650603
  24 O     8.0000    0    15.999   -0.841365   -1.533054    5.106536
  25 C     6.0000    0    12.011   -4.853821    0.206820    3.651956
  26 C     6.0000    0    12.011   -6.177266   -2.232151    2.669629
  27 C     6.0000    0    12.011   -8.765455   -1.519112    1.678835
  28 H     1.0000    0     1.008  -13.462679   -3.063589   -2.085311
  29 H     1.0000    0     1.008   -7.185816   -0.321824   -1.850183
  30 H     1.0000    0     1.008   -9.066662    3.785217    1.714984
  31 H     1.0000    0     1.008   -7.309472    4.261387   -1.067980
  32 H     1.0000    0     1.008   -4.903122    4.239075    3.169726
  33 H     1.0000    0     1.008    1.671760   -3.239745    1.178291
  34 H     1.0000    0     1.008    6.081753   -3.635763   -0.169166
  35 H     1.0000    0     1.008   10.570033    3.450581    0.259941
  36 H     1.0000    0     1.008   14.977403    3.066367   -1.152118
  37 H     1.0000    0     1.008   16.285577   -0.532984   -3.850812
  38 H     1.0000    0     1.008   13.110408   -3.727783   -5.139584
  39 H     1.0000    0     1.008    8.689301   -3.312609   -3.778507
  40 H     1.0000    0     1.008    6.467405    4.380662   -1.247975
  41 H     1.0000    0     1.008    2.072425    4.777322    0.148018
  42 H     1.0000    0     1.008   -5.473381    0.554465    5.586000
  43 H     1.0000    0     1.008   -5.072440   -3.085428    1.144246
  44 H     1.0000    0     1.008   -6.269324   -3.614958    4.191650
  45 H     1.0000    0     1.008   -9.850341   -0.645446    3.222482

--------------------------------
INTERNAL COORDINATES (ANGSTROEM)
--------------------------------
 O      0   0   0     0.000000000000     0.00000000     0.00000000
 C      1   0   0     1.203509726022     0.00000000     0.00000000
 N      2   1   0     1.394443976827   125.58058938     0.00000000
 C      3   2   1     1.397172582106   114.70165765   186.20719564
 O      4   3   2     1.202829046341   125.35343289   187.00614544
 C      4   3   2     1.521883780826   105.10067315     9.59148019
 C      6   4   3     1.515511651670   121.01493521   210.71159497
 C      7   6   4     1.540256766369   109.33565949   174.93956707
 C      8   7   6     1.526909075261   114.28161272    85.11984836
 O      9   8   7     1.203777691292   126.88817663    30.77204225
 N      9   8   7     1.403472846280   107.61315921   208.75206667
 C     11   9   8     1.429089578093   123.94073436   188.16762731
 C     12  11   9     1.391825415176   120.19406558   225.31438877
 C     13  12  11     1.386390195565   119.90709292   180.12276022
 C     14  13  12     1.399463807302   121.43585102   359.69392277
 C     15  14  13     1.481472790505   121.17494934   180.26370995
 C     16  15  14     1.400262455737   121.01501331   218.04981769
 C     17  16  15     1.388810713500   120.99769704   180.01378842
 C     18  17  16     1.390598519968   120.26414204     0.07002907
 C     19  18  17     1.390549917031   119.44403847   359.94845301
 C     20  19  18     1.388768883238   120.25744025     0.00000000
 C     15  14  13     1.399538168963   117.63896277     0.19638295
 C     22  15  14     1.386349306418   121.42284907     0.10404457
 C     11   9   8     1.405674026489   112.07700877     8.47720616
 O     24  11   9     1.203427724318   125.37888979   184.40075153
 C     24  11   9     1.521257660111   107.87911828     7.51873690
 C     26  24  11     1.557710638826   108.41454291   103.24876452
 C     27  26  24     1.514299569373   108.40454707   202.42153317
 H      3   2   1     1.010545381759   122.68502295     6.37278108
 H      6   4   3     1.099827858417   103.92537441    88.70269027
 H      7   6   4     1.092850460386   109.80646314    54.81051077
 H      7   6   4     1.090192257227   111.69891382   295.72405514
 H      8   7   6     1.095998360014   107.65879782   199.82358348
 H     13  12  11     1.080409962698   120.07509559   358.75077839
 H     14  13  12     1.082246350893   118.86548077   178.21053113
 H     17  16  15     1.082817782180   119.51967675     1.62975775
 H     18  17  16     1.083068079548   119.66322129   180.55726460
 H     19  18  17     1.082767825311   120.27680802   179.95457607
 H     20  19  18     1.083055821694   120.07117546   179.49722397
 H     21  20  19     1.082765925746   119.47717573   178.45009887
 H     22  15  14     1.082212184890   119.68851972   181.63199440
 H     23  22  15     1.080615315654   119.99980772   181.00554557
 H     26  24  11     1.090315477980   108.88183009   221.14889819
 H     27  26  24     1.094196002716   110.35705007   322.10261027
 H     27  26  24     1.089279805785   109.26636126    79.47595895
 H     28  27  26     1.100270574031   108.63696990   300.93643629

---------------------------
INTERNAL COORDINATES (A.U.)
---------------------------
 O      0   0   0     0.000000000000     0.00000000     0.00000000
 C      1   0   0     2.274303781693     0.00000000     0.00000000
 N      2   1   0     2.635117225299   125.58058938     0.00000000
 C      3   2   1     2.640273542003   114.70165765   186.20719564
 O      4   3   2     2.273017483510   125.35343289   187.00614544
 C      4   3   2     2.875943553418   105.10067315     9.59148019
 C      6   4   3     2.863901974423   121.01493521   210.71159497
 C      7   6   4     2.910663464356   109.33565949   174.93956707
 C      8   7   6     2.885439983643   114.28161272    85.11984836
 O      9   8   7     2.274810162666   126.88817663    30.77204225
 N      9   8   7     2.652179315863   107.61315921   208.75206667
 C     11   9   8     2.700587923436   123.94073436   188.16762731
 C     12  11   9     2.630168860915   120.19406558   225.31438877
 C     13  12  11     2.619897784372   119.90709292   180.12276022
 C     14  13  12     2.644603330135   121.43585102   359.69392277
 C     15  14  13     2.799577848911   121.17494934   180.26370995
 C     16  15  14     2.646112556954   121.01501331   218.04981769
 C     17  16  15     2.624471900371   120.99769704   180.01378842
 C     18  17  16     2.627850364975   120.26414204     0.07002907
 C     19  18  17     2.627758518735   119.44403847   359.94845301
 C     20  19  18     2.624392852631   120.25744025     0.00000000
 C     15  14  13     2.644743853310   117.63896277     0.19638295
 C     22  15  14     2.619820515082   121.42284907     0.10404457
 C     11   9   8     2.656338943631   112.07700877     8.47720616
 O     24  11   9     2.274148820929   125.37888979   184.40075153
 C     24  11   9     2.874760356740   107.87911828     7.51873690
 C     26  24  11     2.943646503277   108.41454291   103.24876452
 C     27  26  24     2.861611470830   108.40454707   202.42153317
 H      3   2   1     1.909654017423   122.68502295     6.37278108
 H      6   4   3     2.078373446865   103.92537441    88.70269027
 H      7   6   4     2.065188075460   109.80646314    54.81051077
 H      7   6   4     2.060164799481   111.69891382   295.72405514
 H      8   7   6     2.071136743653   107.65879782   199.82358348
 H     13  12  11     2.041678941859   120.07509559   358.75077839
 H     14  13  12     2.045149212624   118.86548077   178.21053113
 H     17  16  15     2.046229061260   119.51967675     1.62975775
 H     18  17  16     2.046702054737   119.66322129   180.55726460
 H     19  18  17     2.046134656459   120.27680802   179.95457607
 H     20  19  18     2.046678890750   120.07117546   179.49722397
 H     21  20  19     2.046131066802   119.47717573   178.45009887
 H     22  15  14     2.045084648235   119.68851972   181.63199440
 H     23  22  15     2.042067002707   119.99980772   181.00554557
 H     26  24  11     2.060397652958   108.88183009   221.14889819
 H     27  26  24     2.067730781964   110.35705007   322.10261027
 H     27  26  24     2.058440516144   109.26636126    79.47595895
 H     28  27  26     2.079210058130   108.63696990   300.93643629



           ************************************************************
           *        Program running with 16 parallel MPI-processes    *
           *              working on a common directory               *
           ************************************************************
------------------------------------------------------------------------------
                   ___                                                        
                  /   \      - P O W E R E D   B Y -                         
                 /     \                                                     
                 |  |  |   _    _      __       _____    __    __             
                 |  |  |  | |  | |    /  \     |  _  \  |  |  /  |          
                  \  \/   | |  | |   /    \    | | | |  |  | /  /          
                 / \  \   | |__| |  /  /\  \   | |_| |  |  |/  /          
                |  |  |   |  __  | /  /__\  \  |    /   |      \           
                |  |  |   | |  | | |   __   |  |    \   |  |\   \          
                \     /   | |  | | |  |  |  |  | |\  \  |  | \   \       
                 \___/    |_|  |_| |__|  |__|  |_| \__\ |__|  \__/        
                                                                              
                      - O R C A' S   B I G   F R I E N D -                    
                                      &                                       
                       - I N T E G R A L  F E E D E R -                       
                                                                              
 v1 FN, 2020, v2 2021, v3 2022-2024                                           
------------------------------------------------------------------------------


----------------------
SHARK INTEGRAL PACKAGE
----------------------

Number of atoms                             ...     46
Number of basis functions                   ...    976
Number of shells                            ...    380
Maximum angular momentum                    ...      3
Integral batch strategy                     ... SHARK/LIBINT Hybrid
RI-J (if used) integral strategy            ... SPLIT-RIJ (Revised 2003 algorithm where possible)
Printlevel                                  ...      1
Contraction scheme used                     ... SEGMENTED contraction
Prescreening option                         ... SCHWARTZ
   Thresh                                   ... 2.500e-11
   Tcut                                     ... 2.500e-12
   Tpresel                                  ... 2.500e-12 
Coulomb Range Separation                    ... NOT USED
Exchange Range Separation                   ... NOT USED
Multipole approximations                    ... NOT USED
Finite Nucleus Model                        ... NOT USED
CABS basis                                  ... NOT available
Auxiliary Coulomb fitting basis             ... AVAILABLE
   # of basis functions in Aux-J            ...   1570
   # of shells in Aux-J                     ...    510
   Maximum angular momentum in Aux-J        ...      4
Auxiliary J/K fitting basis                 ... NOT available
Auxiliary Correlation fitting basis         ... NOT available
Auxiliary 'external' fitting basis          ... NOT available

Checking pre-screening integrals            ... done (  0.0 sec) Dimension = 380
   => SHARK Basis and OBASIS are compatible. Storing Pre-screening
Shell pair information
Shell pair cut-off parameter TPreSel        ...   2.5e-12
Total number of shell pairs                 ...     72390
Shell pairs after pre-screening             ...     42408
Total number of primitive shell pairs       ...    224116
Primitive shell pairs kept                  ...     86628
          la=0 lb=0:  10621 shell pairs
          la=1 lb=0:  12290 shell pairs
          la=1 lb=1:   3567 shell pairs
          la=2 lb=0:   6011 shell pairs
          la=2 lb=1:   3518 shell pairs
          la=2 lb=2:    878 shell pairs
          la=3 lb=0:   2843 shell pairs
          la=3 lb=1:   1685 shell pairs
          la=3 lb=2:    798 shell pairs
          la=3 lb=3:    197 shell pairs

Checking whether 4 symmetric matrices of dimension 976 fit in memory
:Max Core in MB      =   4096.00
 MB in use           =     62.23
 MB left             =   4033.77
 MB needed           =     14.55
 Data fit in memory  = YES
Calculating RI/J V-Matrix + Cholesky decomp.... done (  0.1 sec)
Calculating Nuclear repulsion               ... done (  0.0 sec) ENN=   2404.162503108281 Eh

Diagonalization of the overlap matrix:
Smallest eigenvalue                        ... 6.565e-06
Time for diagonalization                   ...    0.150 sec
Threshold for overlap eigenvalues          ... 1.000e-07
Number of eigenvalues below threshold      ... 0
Time for construction of square roots      ...    0.067 sec
Total time needed                          ...    0.223 sec

-------------------
DFT GRID GENERATION
-------------------

General Integration Accuracy     IntAcc      ... 4.388
Radial Grid Type                 RadialGrid  ... OptM3 with GC (2021)
Angular Grid (max. ang.)         AngularGrid ... 4 (Lebedev-302)
Angular grid pruning method      GridPruning ... 4 (adaptive)
Weight generation scheme         WeightScheme... mBecke (2022)
Basis function cutoff            BFCut       ... 1.0000e-11
Integration weight cutoff        WCut        ... 1.0000e-14
Partially contracted basis set               ... off
Rotationally invariant grid construction     ... off
Angular grids for H and He will be reduced by one unit

Total number of grid points                  ...   224147
Total number of batches                      ...     3527
Average number of points per batch           ...       63
Average number of grid points per atom       ...     4873

--------------------
COSX GRID GENERATION
--------------------

GRIDX 1
-------
General Integration Accuracy     IntAcc      ... 3.816
Radial Grid Type                 RadialGrid  ... OptM3 with GC (2021)
Angular Grid (max. ang.)         AngularGrid ... 1 (Lebedev-50)
Angular grid pruning method      GridPruning ... 4 (adaptive)
Weight generation scheme         WeightScheme... mBecke (2022)
Basis function cutoff            BFCut       ... 1.0000e-11
Integration weight cutoff        WCut        ... 1.0000e-14
Partially contracted basis set               ... on
Rotationally invariant grid construction     ... off
Angular grids for H and He will be reduced by one unit

Total number of grid points                  ...    28413
Total number of batches                      ...      247
Average number of points per batch           ...      115
Average number of grid points per atom       ...      618
UseSFitting                                  ... on

GRIDX 2
-------
General Integration Accuracy     IntAcc      ... 4.020
Radial Grid Type                 RadialGrid  ... OptM3 with GC (2021)
Angular Grid (max. ang.)         AngularGrid ... 2 (Lebedev-110)
Angular grid pruning method      GridPruning ... 4 (adaptive)
Weight generation scheme         WeightScheme... mBecke (2022)
Basis function cutoff            BFCut       ... 1.0000e-11
Integration weight cutoff        WCut        ... 1.0000e-14
Partially contracted basis set               ... on
Rotationally invariant grid construction     ... off
Angular grids for H and He will be reduced by one unit

Total number of grid points                  ...    62260
Total number of batches                      ...      507
Average number of points per batch           ...      122
Average number of grid points per atom       ...     1353
UseSFitting                                  ... on

GRIDX 3
-------
General Integration Accuracy     IntAcc      ... 4.338
Radial Grid Type                 RadialGrid  ... OptM3 with GC (2021)
Angular Grid (max. ang.)         AngularGrid ... 3 (Lebedev-194)
Angular grid pruning method      GridPruning ... 4 (adaptive)
Weight generation scheme         WeightScheme... mBecke (2022)
Basis function cutoff            BFCut       ... 1.0000e-11
Integration weight cutoff        WCut        ... 1.0000e-14
Partially contracted basis set               ... on
Rotationally invariant grid construction     ... off
Angular grids for H and He will be reduced by one unit

Total number of grid points                  ...   136281
Total number of batches                      ...     1085
Average number of points per batch           ...      125
Average number of grid points per atom       ...     2963
UseSFitting                                  ... on
Grids setup in   1.9 sec
Initializing property integral containers    ... done (  0.0 sec)

SHARK setup successfully completed in   2.5 seconds

Maximum memory used throughout the entire STARTUP-calculation: 104.1 MB


           ************************************************************
           *        Program running with 16 parallel MPI-processes    *
           *              working on a common directory               *
           ************************************************************
Occupation numbers will be reassigned to an Aufbau configuration
             **** ENERGY FILE WAS UPDATED (conjugate_row2_A2_H4.en.tmp) ****
Finished Guess after   0.8 sec
Maximum memory used throughout the entire GUESS-calculation: 99.0 MB


           ************************************************************
           *        Program running with 16 parallel MPI-processes    *
           *              working on a common directory               *
           ************************************************************
----------------------------------------D-I-I-S--------------------------------------------
Iteration    Energy (Eh)           Delta-E    RMSDP     MaxDP     DIISErr   Damp  Time(sec)
-------------------------------------------------------------------------------------------
               ***  Starting incremental Fock matrix formation  ***
    1    -1259.4058407451693711     0.00e+00  1.24e-04  1.82e-03  9.33e-03  0.700   6.8
    2    -1259.4060721678883965    -2.31e-04  1.09e-04  1.66e-03  7.39e-03  0.700   3.0
                               ***Turning on AO-DIIS***
    3    -1259.4062575228199421    -1.85e-04  8.39e-05  1.29e-03  5.58e-03  0.700   2.7
    4    -1259.4063954956122870    -1.38e-04  2.05e-04  3.02e-03  4.06e-03  0.000   2.6
                              *** Initializing SOSCF ***
---------------------------------------S-O-S-C-F--------------------------------------
Iteration    Energy (Eh)           Delta-E    RMSDP     MaxDP     MaxGrad    Time(sec)
--------------------------------------------------------------------------------------
    5    -1259.4067438648999087    -3.48e-04  1.63e-05  1.88e-04  2.30e-04     3.2
               *** Restarting incremental Fock matrix formation ***
    6    -1259.4067445042560394    -6.39e-07  2.73e-05  4.54e-04  5.48e-05     6.7
    7    -1259.4067446591907355    -1.55e-07  1.72e-05  4.74e-04  4.51e-05     3.8
    8    -1259.4067446689391545    -9.75e-09  1.57e-05  2.00e-04  3.30e-05     3.6
                 **** Energy Check signals convergence ****

               *****************************************************
               *                     SUCCESS                       *
               *           SCF CONVERGED AFTER   8 CYCLES          *
               *****************************************************

Recomputing exchange energy using gridx3       ... done (   10.875 sec)
Old exchange energy                            :    -33.372151399 Eh
New exchange energy                            :    -33.372159753 Eh
Exchange energy change after final integration :     -0.000008355 Eh
Total energy after final integration           :  -1259.406753121 Eh
             **** ENERGY FILE WAS UPDATED (conjugate_row2_A2_H4.en.tmp) ****

----------------
TOTAL SCF ENERGY
----------------

Total Energy       :      -1259.40675312088115 Eh          -34270.20002 eV

Components:
Nuclear Repulsion  :       2404.16250310828127 Eh           65420.58763 eV
Electronic Energy  :      -3663.56924787435491 Eh          -99690.78742 eV
One Electron Energy:      -6489.82803471082934 Eh         -176597.19885 eV
Two Electron Energy:       2826.25878683647443 Eh           76906.41144 eV

Virial components:
Potential Energy   :      -2513.39642855807870 Eh          -68392.99385 eV
Kinetic Energy     :       1253.98967543719732 Eh           34122.79384 eV
Virial Ratio       :          2.00431987423006

DFT components:
N(Alpha)           :       97.999972683753 electrons
N(Beta)            :       97.999972683753 electrons
N(Total)           :      195.999945367505 electrons
E(X)               :     -132.675499105440 Eh       
E(C)               :       -7.941600123061 Eh       
E(XC)              :     -140.617099228501 Eh       

---------------
SCF CONVERGENCE
---------------

  Last Energy change         ...    9.7484e-09  Tolerance :   1.0000e-08
  Last MAX-Density change    ...    2.0011e-04  Tolerance :   1.0000e-07
  Last RMS-Density change    ...    1.5668e-05  Tolerance :   5.0000e-09
  Last DIIS Error            ...    2.3025e-04  Tolerance :   5.0000e-07
  Last Orbital Gradient      ...    3.3022e-05  Tolerance :   1.0000e-05
  Last Orbital Rotation      ...    6.5052e-05  Tolerance :   1.0000e-05


Total SCF time: 0 days 0 hours 0 min 47 sec 
Finished LeanSCF after  47.4 sec

Maximum memory used throughout the entire LEANSCF-calculation: 138.8 MB

-------------------------   --------------------
FINAL SINGLE POINT ENERGY     -1259.406753120881
-------------------------   --------------------



           ************************************************************
           *        Program running with 16 parallel MPI-processes    *
           *              working on a common directory               *
           ************************************************************
------------------------------------------------------------------------------
                         ORCA SCF GRADIENT CALCULATION
------------------------------------------------------------------------------

Nuc. rep. gradient        (SHARK) ... done (  0.0 sec)
HCore & Overlap gradient  (SHARK) ... done (  0.3 sec)
Split-RIJ-J gradient      (SHARK) ... done (  1.8 sec)
COSX-gradient                     ... done ( 19.1 sec)
XC gradient                       ... done (  2.4 sec)

------------------
CARTESIAN GRADIENT
------------------

   1   O   :   -0.000089453   -0.000385201    0.000293494
   2   C   :   -0.000023045    0.000921652   -0.000805042
   3   N   :    0.000259269    0.000167108    0.000248543
   4   C   :    0.000155276   -0.000874718    0.000739050
   5   O   :   -0.000106111    0.000281552   -0.000348813
   6   C   :    0.000016577   -0.000215434   -0.000135697
   7   C   :   -0.000222510   -0.000076449    0.000114089
   8   C   :    0.000193651   -0.000309422   -0.000053557
   9   C   :    0.000585620    0.000033871    0.000964975
  10   O   :   -0.000197301    0.000017685   -0.000367685
  11   N   :   -0.000349571   -0.000154247   -0.000202567
  12   C   :   -0.000718455    0.000092403    0.000246947
  13   C   :    0.000381793   -0.000083069   -0.000063378
  14   C   :   -0.000111866   -0.000030688   -0.000051836
  15   C   :    0.000483077   -0.000061178   -0.000131358
  16   C   :   -0.000636413    0.000047815    0.000171825
  17   C   :    0.000254165    0.000056119   -0.000123284
  18   C   :   -0.000035152    0.000019164    0.000031017
  19   C   :   -0.000029663    0.000002149   -0.000002672
  20   C   :   -0.000040235   -0.000009050   -0.000005351
  21   C   :    0.000272521   -0.000097379   -0.000035160
  22   C   :   -0.000033521    0.000050473    0.000095518
  23   C   :    0.000315115   -0.000049039   -0.000188216
  24   C   :   -0.000101283    0.000699940   -0.000172878
  25   O   :    0.000038655   -0.000251016    0.000096338
  26   C   :    0.000270232    0.000073241   -0.000181013
  27   C   :   -0.000112977   -0.000168409   -0.000046728
  28   C   :   -0.000087669    0.000212306    0.000065850
  29   H   :    0.000005020    0.000005757   -0.000022652
  30   H   :   -0.000038746    0.000131382   -0.000130182
  31   H   :    0.000035227   -0.000005652    0.000017246
  32   H   :    0.000013138   -0.000032252   -0.000033045
  33   H   :    0.000076107    0.000058758   -0.000146743
  34   H   :   -0.000079974    0.000118460   -0.000042177
  35   H   :   -0.000064028    0.000012133    0.000067345
  36   H   :    0.000019611   -0.000036417    0.000004776
  37   H   :    0.000011078   -0.000010420   -0.000024596
  38   H   :   -0.000000029    0.000001326   -0.000000719
  39   H   :    0.000027220    0.000008802    0.000017975
  40   H   :    0.000008285    0.000040722   -0.000004667
  41   H   :   -0.000101598   -0.000000798    0.000008132
  42   H   :   -0.000066171   -0.000071120    0.000083147
  43   H   :   -0.000075300   -0.000081175   -0.000006098
  44   H   :    0.000054589    0.000140381   -0.000034084
  45   H   :   -0.000070421    0.000007853   -0.000005031
  46   H   :   -0.000084735   -0.000197923    0.000098966

Difference to translation invariance:
           :   -0.0000000000   -0.0000000000   -0.0000000000

Difference to rotation invariance:
           :    0.0002871419   -0.0000683288    0.0000470456

Norm of the Cartesian gradient     ...    0.0028585118
RMS gradient                       ...    0.0002433327
MAX gradient                       ...    0.0009649746

-------
TIMINGS
-------

Total SCF gradient time     ....       23.590 sec

Densities                   ....       0.008 sec  (  0.0%)
One electron gradient       ....       0.322 sec  (  1.4%)
RI-J Coulomb gradient       ....       1.764 sec  (  7.5%)
COSX gradient               ....      19.119 sec  ( 81.0%)
XC gradient                 ....       2.377 sec  ( 10.1%)

Maximum memory used throughout the entire SCFGRAD-calculation: 164.1 MB
------------------------------------------------------------------------------
                         ORCA GEOMETRY RELAXATION STEP
------------------------------------------------------------------------------

Reading the OPT-File                    .... done
Getting information on internals        .... done
Copying old internal coords+grads       .... done
Making the new internal coordinates     .... (2022 redundants) done
Validating the new internal coordinates .... (2022 redundants) done
Calculating the B-matrix                .... done
Calculating the G,G- and P matrices     .... done
Transforming gradient to internals      .... done
Projecting the internal gradient        .... done
Number of atoms                         ....  46
Number of internal coordinates          .... 268
Current Energy                          .... -1259.406753121 Eh
Current gradient norm                   ....     0.002858512 Eh/bohr
Maximum allowed component of the step   ....  0.300
Current trust radius                    ....  0.700
Updating the Hessian (BFGS)             .... done
Forming the augmented Hessian           .... done
Diagonalizing the augmented Hessian     .... done
Last element of RFO vector              ....  0.999770928
Lowest eigenvalues of augmented Hessian:
 -0.000014263  0.005414100  0.010897334  0.015137767  0.016101630
Length of the computed step             ....  0.021407983
The final length of the internal step   ....  0.021407983
Converting the step to Cartesian space:
 Initial RMS(Int)=    0.0013077007
Transforming coordinates:
 Iter   0:  RMS(Cart)=    0.0089856556 RMS(Int)=    0.3837847897
done
Storing new coordinates                 .... done
The predicted energy change is          ....    -0.000007135
Previously predicted energy change      ....    -0.000039197
Actually observed energy change         ....    -0.000031721
Ratio of predicted to observed change   ....     0.809287956
New trust radius                        ....     0.700000000

                                .--------------------.
          ----------------------|Geometry convergence|-------------------------
          Item                value                   Tolerance       Converged
          ---------------------------------------------------------------------
          Energy change      -0.0000317213            0.0000050000      NO
          RMS gradient        0.0001081197            0.0001000000      NO
          MAX gradient        0.0005171898            0.0003000000      NO
          RMS step            0.0013077007            0.0020000000      YES
          MAX step            0.0068884211            0.0040000000      NO
          -------------------------------------------------------------------------
          ........................................................
          Max(Bonds)      0.0005      Max(Angles)    0.06
          Max(Dihed)        0.39      Max(Improp)    0.00
          ---------------------------------------------------------------------

The optimization has not yet converged - more geometry cycles are needed


    ---------------------------------------------------------------------------
                         Redundant Internal Coordinates
                            (Angstroem and degrees)

        Definition                    Value    dE/dq     Step     New-Value
    ----------------------------------------------------------------------------
     1. B(C   1,O   0)                1.2035  0.000461 -0.0003    1.2032   
     2. B(N   2,C   1)                1.3944 -0.000517  0.0005    1.3949   
     3. B(C   3,N   2)                1.3972 -0.000495  0.0005    1.3976   
     4. B(O   4,C   3)                1.2028  0.000441 -0.0002    1.2026   
     5. B(C   5,C   3)                1.5219 -0.000210  0.0003    1.5222   
     6. B(C   6,C   5)                1.5155 -0.000059  0.0001    1.5156   
     7. B(C   7,C   6)                1.5403  0.000143 -0.0002    1.5400   
     8. B(C   8,C   7)                1.5269 -0.000167  0.0003    1.5273   
     9. B(O   9,C   8)                1.2038  0.000298 -0.0002    1.2036   
    10. B(N  10,C   8)                1.4035 -0.000410  0.0003    1.4037   
    11. B(C  11,N  10)                1.4291 -0.000152  0.0004    1.4295   
    12. B(C  12,C  11)                1.3918  0.000097 -0.0001    1.3917   
    13. B(C  13,C  12)                1.3864 -0.000002 -0.0001    1.3863   
    14. B(C  14,C  13)                1.3995  0.000117 -0.0001    1.3993   
    15. B(C  15,C  14)                1.4815 -0.000151  0.0002    1.4817   
    16. B(C  16,C  15)                1.4003  0.000197 -0.0002    1.4000   
    17. B(C  17,C  16)                1.3888 -0.000036  0.0000    1.3888   
    18. B(C  18,C  17)                1.3906 -0.000049  0.0000    1.3906   
    19. B(C  19,C  18)                1.3905 -0.000058  0.0001    1.3906   
    20. B(C  20,C  19)                1.3888 -0.000033  0.0000    1.3888   
    21. B(C  20,C  15)                1.4003  0.000180 -0.0002    1.4001   
    22. B(C  21,C  14)                1.3995  0.000138 -0.0001    1.3994   
    23. B(C  22,C  21)                1.3863  0.000020 -0.0001    1.3863   
    24. B(C  22,C  11)                1.3918  0.000052 -0.0001    1.3917   
    25. B(C  23,N  10)                1.4057 -0.000249  0.0001    1.4058   
    26. B(O  24,C  23)                1.2034  0.000224 -0.0002    1.2032   
    27. B(C  25,C  23)                1.5213 -0.000224  0.0005    1.5217   
    28. B(C  25,C   7)                1.5482 -0.000204  0.0005    1.5488   
    29. B(C  26,C  25)                1.5577  0.000113 -0.0001    1.5576   
    30. B(C  27,C   5)                1.5304 -0.000236  0.0003    1.5307   
    31. B(C  27,C   1)                1.5230 -0.000170  0.0003    1.5233   
    32. B(C  27,C  26)                1.5143 -0.000054  0.0001    1.5144   
    33. B(H  28,N   2)                1.0105  0.000004 -0.0000    1.0105   
    34. B(H  29,C   5)                1.0998  0.000015 -0.0000    1.0998   
    35. B(H  30,C   6)                1.0929 -0.000017  0.0000    1.0929   
    36. B(H  31,C   6)                1.0902  0.000007 -0.0000    1.0902   
    37. B(H  32,C   7)                1.0960 -0.000029 -0.0000    1.0960   
    38. B(H  33,C  12)                1.0804 -0.000067  0.0001    1.0805   
    39. B(H  34,C  13)                1.0822 -0.000039  0.0000    1.0823   
    40. B(H  35,C  16)                1.0828 -0.000031  0.0001    1.0829   
    41. B(H  36,C  17)                1.0831 -0.000007 -0.0000    1.0831   
    42. B(H  37,C  18)                1.0828  0.000000 -0.0000    1.0828   
    43. B(H  38,C  19)                1.0831 -0.000009  0.0000    1.0831   
    44. B(H  39,C  20)                1.0828 -0.000031  0.0001    1.0828   
    45. B(H  40,C  21)                1.0822 -0.000053  0.0001    1.0823   
    46. B(H  41,C  22)                1.0806 -0.000033  0.0000    1.0806   
    47. B(H  42,C  25)                1.0903  0.000003 -0.0001    1.0903   
    48. B(H  43,C  26)                1.0942 -0.000005  0.0000    1.0942   
    49. B(H  44,C  26)                1.0893 -0.000006 -0.0000    1.0893   
    50. B(H  45,C  27)                1.1003  0.000035 -0.0001    1.1002   
    51. A(O   0,C   1,N   2)          125.58  0.000038    0.00    125.58   
    52. A(O   0,C   1,C  27)          129.25 -0.000187    0.02    129.27   
    53. A(N   2,C   1,C  27)          105.09  0.000145   -0.01    105.08   
    54. A(C   1,N   2,H  28)          122.69  0.000053   -0.01    122.68   
    55. A(C   1,N   2,C   3)          114.70 -0.000078    0.01    114.71   
    56. A(C   3,N   2,H  28)          122.61  0.000026   -0.00    122.61   
    57. A(N   2,C   3,C   5)          105.10  0.000144   -0.02    105.09   
    58. A(O   4,C   3,C   5)          129.49 -0.000140    0.01    129.50   
    59. A(N   2,C   3,O   4)          125.35 -0.000007    0.01    125.36   
    60. A(C   3,C   5,C  27)          103.28 -0.000105    0.00    103.28   
    61. A(C   3,C   5,H  29)          103.93 -0.000037    0.03    103.95   
    62. A(C   6,C   5,H  29)          108.48 -0.000069    0.01    108.49   
    63. A(C  27,C   5,H  29)          107.92  0.000145   -0.05    107.87   
    64. A(C   3,C   5,C   6)          121.01  0.000105   -0.02    121.00   
    65. A(C   6,C   5,C  27)          111.39 -0.000024    0.01    111.41   
    66. A(C   5,C   6,H  30)          109.81  0.000039   -0.01    109.79   
    67. A(C   5,C   6,C   7)          109.34  0.000075   -0.01    109.32   
    68. A(C   7,C   6,H  31)          109.04 -0.000017    0.01    109.06   
    69. A(C   5,C   6,H  31)          111.70 -0.000076    0.02    111.72   
    70. A(H  30,C   6,H  31)          107.44  0.000044   -0.02    107.42   
    71. A(C   7,C   6,H  30)          109.48 -0.000067    0.01    109.49   
    72. A(C   8,C   7,H  32)          103.78 -0.000153    0.04    103.82   
    73. A(C   6,C   7,H  32)          107.66 -0.000066   -0.00    107.66   
    74. A(C   6,C   7,C   8)          114.28  0.000138   -0.03    114.25   
    75. A(C   8,C   7,C  25)          103.29 -0.000020   -0.00    103.29   
    76. A(C   6,C   7,C  25)          119.14 -0.000099    0.03    119.16   
    77. A(C  25,C   7,H  32)          107.50  0.000199   -0.03    107.48   
    78. A(O   9,C   8,N  10)          125.47  0.000171   -0.02    125.44   
    79. A(C   7,C   8,O   9)          126.89 -0.000212    0.03    126.92   
    80. A(C   7,C   8,N  10)          107.61  0.000048   -0.01    107.61   
    81. A(C   8,N  10,C  23)          112.08  0.000001    0.02    112.09   
    82. A(C   8,N  10,C  11)          123.94  0.000034   -0.01    123.93   
    83. A(C  11,N  10,C  23)          123.98 -0.000035   -0.00    123.98   
    84. A(C  12,C  11,C  22)          119.67 -0.000287    0.04    119.71   
    85. A(N  10,C  11,C  22)          120.13  0.000175   -0.03    120.10   
    86. A(N  10,C  11,C  12)          120.19  0.000112   -0.01    120.18   
    87. A(C  13,C  12,H  33)          120.00  0.000033   -0.02    119.99   
    88. A(C  11,C  12,H  33)          120.08 -0.000219    0.04    120.11   
    89. A(C  11,C  12,C  13)          119.91  0.000186   -0.02    119.89   
    90. A(C  12,C  13,C  14)          121.44  0.000064   -0.02    121.42   
    91. A(C  14,C  13,H  34)          119.68  0.000041   -0.00    119.68   
    92. A(C  12,C  13,H  34)          118.87 -0.000105    0.02    118.89   
    93. A(C  15,C  14,C  21)          121.19  0.000106   -0.02    121.17   
    94. A(C  13,C  14,C  21)          117.64 -0.000209    0.04    117.68   
    95. A(C  13,C  14,C  15)          121.17  0.000103   -0.02    121.16   
    96. A(C  16,C  15,C  20)          118.03 -0.000227    0.03    118.06   
    97. A(C  14,C  15,C  20)          120.95  0.000098   -0.01    120.94   
    98. A(C  14,C  15,C  16)          121.02  0.000130   -0.02    121.00   
    99. A(C  15,C  16,C  17)          121.00  0.000090   -0.01    120.99   
   100. A(C  17,C  16,H  35)          119.46 -0.000051    0.00    119.46   
   101. A(C  15,C  16,H  35)          119.52 -0.000039    0.01    119.53   
   102. A(C  16,C  17,C  18)          120.26  0.000017   -0.00    120.26   
   103. A(C  18,C  17,H  36)          120.07 -0.000035    0.01    120.08   
   104. A(C  16,C  17,H  36)          119.66  0.000018   -0.00    119.66   
   105. A(C  17,C  18,C  19)          119.44  0.000007    0.00    119.44   
   106. A(C  19,C  18,H  37)          120.28 -0.000003   -0.00    120.28   
   107. A(C  17,C  18,H  37)          120.28 -0.000003   -0.00    120.28   
   108. A(C  18,C  19,C  20)          120.26  0.000013   -0.00    120.26   
   109. A(C  20,C  19,H  38)          119.67  0.000022   -0.00    119.67   
   110. A(C  18,C  19,H  38)          120.07 -0.000035    0.01    120.08   
   111. A(C  15,C  20,C  19)          121.01  0.000100   -0.01    120.99   
   112. A(C  19,C  20,H  39)          119.48 -0.000038   -0.00    119.48   
   113. A(C  15,C  20,H  39)          119.50 -0.000062    0.02    119.51   
   114. A(C  14,C  21,C  22)          121.42  0.000076   -0.02    121.40   
   115. A(C  22,C  21,H  40)          118.87 -0.000123    0.02    118.90   
   116. A(C  14,C  21,H  40)          119.69  0.000047   -0.01    119.68   
   117. A(C  11,C  22,C  21)          119.92  0.000170   -0.02    119.90   
   118. A(C  21,C  22,H  41)          120.00  0.000029   -0.01    119.99   
   119. A(C  11,C  22,H  41)          120.07 -0.000199    0.03    120.10   
   120. A(O  24,C  23,C  25)          126.66 -0.000102    0.01    126.67   
   121. A(N  10,C  23,C  25)          107.88  0.000042    0.01    107.89   
   122. A(N  10,C  23,O  24)          125.38  0.000053   -0.01    125.36   
   123. A(C  26,C  25,H  42)          108.53 -0.000070    0.02    108.55   
   124. A(C  23,C  25,H  42)          108.88  0.000044   -0.02    108.87   
   125. A(C   7,C  25,H  42)          111.90  0.000054   -0.04    111.86   
   126. A(C  23,C  25,C  26)          108.41  0.000068   -0.01    108.41   
   127. A(C   7,C  25,C  26)          115.50 -0.000026    0.03    115.53   
   128. A(C   7,C  25,C  23)          103.30 -0.000061    0.01    103.32   
   129. A(C  25,C  26,C  27)          108.40  0.000046    0.01    108.41   
   130. A(C  27,C  26,H  44)          112.52 -0.000085    0.01    112.52   
   131. A(C  25,C  26,H  44)          109.27  0.000051   -0.02    109.25   
   132. A(C  27,C  26,H  43)          109.31  0.000041   -0.01    109.30   
   133. A(C  25,C  26,H  43)          110.36 -0.000126    0.04    110.40   
   134. A(H  43,C  26,H  44)          106.99  0.000067   -0.04    106.95   
   135. A(C   5,C  27,C  26)          111.08  0.000005    0.01    111.09   
   136. A(C   1,C  27,C  26)          120.96  0.000089   -0.02    120.95   
   137. A(C  26,C  27,H  45)          108.64  0.000041   -0.01    108.63   
   138. A(C   1,C  27,C   5)          103.38 -0.000126    0.01    103.39   
   139. A(C   5,C  27,H  45)          108.03  0.000244   -0.06    107.97   
   140. A(C   1,C  27,H  45)          103.96 -0.000238    0.05    104.01   
   141. D(C   3,N   2,C   1,C  27)      9.17  0.000035   -0.02      9.15   
   142. D(H  28,N   2,C   1,C  27)   -170.66  0.000014    0.02   -170.65   
   143. D(C   3,N   2,C   1,O   0)   -173.79 -0.000026    0.08   -173.71   
   144. D(H  28,N   2,C   1,O   0)      6.37 -0.000046    0.13      6.50   
   145. D(C   5,C   3,N   2,C   1)      9.59  0.000013    0.02      9.62   
   146. D(O   4,C   3,N   2,H  28)      6.84 -0.000039    0.11      6.95   
   147. D(C   5,C   3,N   2,H  28)   -170.57  0.000033   -0.02   -170.59   
   148. D(O   4,C   3,N   2,C   1)   -172.99 -0.000059    0.15   -172.84   
   149. D(C  27,C   5,C   3,O   4)    158.84  0.000028   -0.14    158.70   
   150. D(C   6,C   5,C   3,O   4)     33.44  0.000080   -0.15     33.29   
   151. D(C  27,C   5,C   3,N   2)    -23.89 -0.000043   -0.02    -23.91   
   152. D(H  29,C   5,C   3,N   2)     88.70  0.000064   -0.05     88.65   
   153. D(C   6,C   5,C   3,N   2)   -149.29  0.000009   -0.02   -149.31   
   154. D(C   7,C   6,C   5,C  27)     53.38  0.000043   -0.00     53.38   
   155. D(C   7,C   6,C   5,H  29)    -65.26 -0.000078    0.04    -65.22   
   156. D(C   7,C   6,C   5,C   3)    174.94 -0.000042    0.00    174.94   
   157. D(H  30,C   6,C   5,H  29)    174.61 -0.000065    0.04    174.65   
   158. D(H  30,C   6,C   5,C   3)     54.81 -0.000030   -0.00     54.81   
   159. D(H  30,C   6,C   5,C  27)    -66.75  0.000056   -0.00    -66.75   
   160. D(C  25,C   7,C   6,H  30)     82.76 -0.000013    0.04     82.80   
   161. D(C  25,C   7,C   6,C   5)    -37.57 -0.000065    0.06    -37.52   
   162. D(C   8,C   7,C   6,H  31)    -37.27  0.000006    0.03    -37.24   
   163. D(C   8,C   7,C   6,C   5)     85.12 -0.000051    0.05     85.17   
   164. D(C  25,C   7,C   6,H  31)   -159.96 -0.000008    0.04   -159.93   
   165. D(C   8,C   7,C   6,H  30)   -154.55  0.000001    0.04   -154.51   
   166. D(N  10,C   8,C   7,C  25)    -20.30  0.000073   -0.04    -20.34   
   167. D(O   9,C   8,C   7,H  32)    -86.19  0.000003    0.21    -85.98   
   168. D(O   9,C   8,C   7,C   6)     30.77 -0.000104    0.21     30.98   
   169. D(O   9,C   8,C   7,C  25)    161.72 -0.000152    0.22    161.95   
   170. D(N  10,C   8,C   7,C   6)   -151.25  0.000121   -0.05   -151.30   
   171. D(C  11,N  10,C   8,C   7)   -171.83 -0.000113    0.11   -171.72   
   172. D(C  23,N  10,C   8,O   9)   -173.51  0.000093   -0.16   -173.66   
   173. D(C  23,N  10,C   8,C   7)      8.48 -0.000117    0.13      8.61   
   174. D(C  11,N  10,C   8,O   9)      6.18  0.000098   -0.18      6.01   
   175. D(C  22,C  11,N  10,C  23)   -135.02 -0.000024    0.21   -134.82   
   176. D(C  22,C  11,N  10,C   8)     45.32 -0.000029    0.23     45.55   
   177. D(C  12,C  11,N  10,C  23)     44.97 -0.000018    0.18     45.14   
   178. D(C  12,C  11,N  10,C   8)   -134.69 -0.000023    0.19   -134.49   
   179. D(H  33,C  12,C  11,C  22)    178.74  0.000021   -0.03    178.72   
   180. D(H  33,C  12,C  11,N  10)     -1.25  0.000015    0.00     -1.25   
   181. D(C  13,C  12,C  11,C  22)      0.11  0.000009   -0.01      0.10   
   182. D(C  13,C  12,C  11,N  10)   -179.88  0.000002    0.02   -179.86   
   183. D(H  34,C  13,C  12,H  33)     -0.42 -0.000027    0.05     -0.37   
   184. D(C  14,C  13,C  12,H  33)   -178.94 -0.000027    0.05   -178.89   
   185. D(C  14,C  13,C  12,C  11)     -0.31 -0.000018    0.04     -0.27   
   186. D(H  34,C  13,C  12,C  11)    178.21 -0.000018    0.04    178.25   
   187. D(C  21,C  14,C  13,H  34)   -178.31  0.000015   -0.03   -178.34   
   188. D(C  21,C  14,C  13,C  12)      0.20  0.000012   -0.03      0.17   
   189. D(C  15,C  14,C  13,H  34)      1.76  0.000025   -0.07      1.69   
   190. D(C  15,C  14,C  13,C  12)   -179.74  0.000022   -0.06   -179.80   
   191. D(C  20,C  15,C  14,C  21)   -141.85 -0.000061    0.35   -141.50   
   192. D(C  20,C  15,C  14,C  13)     38.08 -0.000071    0.39     38.47   
   193. D(C  16,C  15,C  14,C  21)     38.12 -0.000063    0.36     38.48   
   194. D(C  16,C  15,C  14,C  13)   -141.95 -0.000073    0.39   -141.56   
   195. D(H  35,C  16,C  15,C  20)   -178.40  0.000011   -0.03   -178.43   
   196. D(H  35,C  16,C  15,C  14)      1.63  0.000012   -0.04      1.59   
   197. D(C  17,C  16,C  15,C  20)     -0.02  0.000007   -0.01     -0.03   
   198. D(C  17,C  16,C  15,C  14)   -179.99  0.000008   -0.02   -180.01   
   199. D(C  18,C  17,C  16,C  15)      0.07 -0.000007    0.01      0.08   
   200. D(C  18,C  17,C  16,H  35)    178.45 -0.000011    0.03    178.48   
   201. D(H  36,C  17,C  16,H  35)     -1.06 -0.000012    0.03     -1.03   
   202. D(H  36,C  17,C  16,C  15)   -179.44 -0.000008    0.02   -179.43   
   203. D(C  19,C  18,C  17,C  16)     -0.05  0.000000    0.00     -0.05   
   204. D(H  37,C  18,C  17,H  36)     -0.53  0.000004   -0.01     -0.54   
   205. D(H  37,C  18,C  17,C  16)    179.95  0.000003   -0.01    179.95   
   206. D(C  19,C  18,C  17,H  36)    179.46  0.000001    0.00    179.46   
   207. D(H  38,C  19,C  18,H  37)     -0.51  0.000004   -0.01     -0.51   
   208. D(H  38,C  19,C  18,C  17)    179.50  0.000007   -0.01    179.48   
   209. D(C  20,C  19,C  18,H  37)    179.97  0.000004   -0.01    179.97   
   210. D(C  20,C  19,C  18,C  17)     -0.02  0.000007   -0.02     -0.04   
   211. D(H  39,C  20,C  19,H  38)     -1.07 -0.000014    0.03     -1.03   
   212. D(H  39,C  20,C  19,C  18)    178.45 -0.000014    0.04    178.49   
   213. D(C  15,C  20,C  19,H  38)   -179.44 -0.000007    0.01   -179.43   
   214. D(C  15,C  20,C  19,C  18)      0.07 -0.000007    0.02      0.09   
   215. D(H  39,C  20,C  15,C  16)   -178.43  0.000006   -0.02   -178.45   
   216. D(H  39,C  20,C  15,C  14)      1.54  0.000005   -0.01      1.52   
   217. D(C  19,C  20,C  15,C  16)     -0.06  0.000001   -0.00     -0.06   
   218. D(C  19,C  20,C  15,C  14)    179.91 -0.000001    0.01    179.92   
   219. D(H  40,C  21,C  14,C  15)      1.56 -0.000001    0.01      1.57   
   220. D(H  40,C  21,C  14,C  13)   -178.37  0.000008   -0.03   -178.39   
   221. D(C  22,C  21,C  14,C  15)   -179.96 -0.000009    0.03   -179.93   
   222. D(C  22,C  21,C  14,C  13)      0.10  0.000000   -0.00      0.10   
   223. D(H  41,C  22,C  21,H  40)     -0.51 -0.000026    0.05     -0.46   
   224. D(H  41,C  22,C  21,C  14)   -178.99 -0.000020    0.02   -178.97   
   225. D(C  11,C  22,C  21,H  40)    178.19 -0.000015    0.05    178.24   
   226. D(C  11,C  22,C  21,C  14)     -0.29 -0.000009    0.02     -0.27   
   227. D(H  41,C  22,C  11,C  12)    178.88  0.000018   -0.02    178.87   
   228. D(H  41,C  22,C  11,N  10)     -1.13  0.000024   -0.05     -1.17   
   229. D(C  21,C  22,C  11,C  12)      0.18  0.000004   -0.02      0.16   
   230. D(C  21,C  22,C  11,N  10)   -179.83  0.000011   -0.05   -179.87   
   231. D(C  25,C  23,N  10,C  11)   -172.17  0.000111   -0.15   -172.32   
   232. D(C  25,C  23,N  10,C   8)      7.52  0.000116   -0.17      7.35   
   233. D(O  24,C  23,N  10,C  11)      4.71 -0.000044   -0.02      4.69   
   234. D(O  24,C  23,N  10,C   8)   -175.60 -0.000039   -0.04   -175.63   
   235. D(H  42,C  25,C  23,N  10)   -138.85 -0.000105    0.18   -138.67   
   236. D(C  26,C  25,C  23,O  24)    -73.58  0.000067    0.05    -73.53   
   237. D(C   7,C  25,C  23,O  24)    163.40  0.000097    0.02    163.41   
   238. D(C   7,C  25,C  23,N  10)    -19.77 -0.000055    0.14    -19.63   
   239. D(C  26,C  25,C   7,H  32)    156.12  0.000043   -0.10    156.02   
   240. D(C  26,C  25,C   7,C   8)    -94.54 -0.000064   -0.07    -94.61   
   241. D(C  26,C  25,C   7,C   6)     33.44  0.000033   -0.10     33.34   
   242. D(C  26,C  25,C  23,N  10)    103.25 -0.000085    0.17    103.42   
   243. D(C  23,C  25,C   7,H  32)    -85.69  0.000072   -0.09    -85.78   
   244. D(C  23,C  25,C   7,C   8)     23.65 -0.000035   -0.06     23.59   
   245. D(C  23,C  25,C   7,C   6)    151.63  0.000062   -0.08    151.55   
   246. D(H  43,C  26,C  25,H  42)   -156.02 -0.000040    0.12   -155.90   
   247. D(H  43,C  26,C  25,C  23)    -37.90  0.000012    0.10    -37.79   
   248. D(H  43,C  26,C  25,C   7)     77.41 -0.000033    0.13     77.54   
   249. D(C  27,C  26,C  25,H  42)     84.30 -0.000044    0.09     84.39   
   250. D(C  27,C  26,C  25,C  23)   -157.58  0.000008    0.08   -157.50   
   251. D(C  27,C  26,C  25,C   7)    -42.27 -0.000037    0.11    -42.16   
   252. D(C   5,C  27,C  26,C  25)     59.63  0.000007   -0.06     59.57   
   253. D(C   1,C  27,C  26,H  44)    -58.06 -0.000053   -0.05    -58.11   
   254. D(C   1,C  27,C  26,H  43)     60.65  0.000006   -0.10     60.55   
   255. D(C  26,C  27,C   5,H  29)     50.30  0.000028   -0.01     50.29   
   256. D(C  26,C  27,C   5,C   6)    -68.67  0.000035   -0.00    -68.68   
   257. D(C  26,C  27,C   5,C   3)    159.95 -0.000005    0.01    159.95   
   258. D(C   1,C  27,C   5,H  29)    -80.88  0.000003   -0.01    -80.89   
   259. D(C   1,C  27,C   5,C   6)    160.15  0.000010   -0.00    160.14   
   260. D(C   1,C  27,C   5,C   3)     28.77 -0.000030    0.01     28.78   
   261. D(H  45,C  27,C   1,O   0)    -87.80  0.000138   -0.14    -87.94   
   262. D(C   1,C  27,C  26,C  25)   -179.01 -0.000095   -0.04   -179.05   
   263. D(C  26,C  27,C   1,N   2)   -148.69 -0.000007   -0.01   -148.70   
   264. D(C  26,C  27,C   1,O   0)     34.42  0.000047   -0.11     34.31   
   265. D(C   5,C  27,C   1,N   2)    -23.68 -0.000050    0.01    -23.67   
   266. D(C   5,C  27,C  26,H  43)    -60.71  0.000108   -0.11    -60.82   
   267. D(C   5,C  27,C   1,O   0)    159.44  0.000004   -0.10    159.34   
   268. D(C   5,C  27,C  26,H  44)   -179.42  0.000049   -0.07   -179.49   
    ----------------------------------------------------------------------------

Geometry step timings:
Preparation and reading OPT file:      0.000 s ( 0.196 %)
Internal coordinates            :      0.000 s ( 0.307 %)
B/P matrices and projection     :      0.007 s (48.436 %)
Hessian update/contruction      :      0.002 s (10.240 %)
Making the step                 :      0.005 s (30.118 %)
Converting the step to Cartesian:      0.001 s ( 3.363 %)
Storing new data                :      0.000 s ( 0.248 %)
Checking convergence            :      0.000 s ( 0.490 %)
Final printing                  :      0.001 s ( 6.596 %)
Total time                      :      0.015 s

Time for energy+gradient        :     75.598 s
Time for complete geometry iter :     75.821 s

         *************************************************************
         *                GEOMETRY OPTIMIZATION CYCLE   9            *
         *************************************************************
---------------------------------
CARTESIAN COORDINATES (ANGSTROEM)
---------------------------------
  O     -5.735301   -3.003470    0.680475
  C     -5.585105   -1.860260    0.336513
  N     -6.325026   -1.204895   -0.647815
  C     -5.870648    0.078753   -0.962766
  O     -6.431034    0.856852   -1.688524
  C     -4.532377    0.211347   -0.249643
  C     -4.043722    1.556486    0.249267
  C     -2.733036    1.363278    1.034372
  C     -1.478230    1.339438    0.164062
  O     -1.305817    1.927111   -0.872016
  N     -0.524237    0.542578    0.816295
  C      0.835863    0.419581    0.393886
  C      1.437611   -0.833587    0.328611
  C      2.757897   -0.945488   -0.079104
  C      3.508935    0.179925   -0.436199
  C      4.918320    0.053173   -0.875398
  C      5.880034    0.996376   -0.493903
  C      7.201068    0.877216   -0.905578
  C      7.590972   -0.187766   -1.710365
  C      6.647349   -1.132643   -2.098390
  C      5.326948   -1.013675   -1.684782
  C      2.882177    1.429066   -0.364718
  C      1.564263    1.553498    0.046830
  C     -1.064926   -0.125761    1.928601
  O     -0.444084   -0.809830    2.699562
  C     -2.568024    0.111522    1.931256
  C     -3.270858   -1.179875    1.417171
  C     -4.640325   -0.802452    0.892178
  H     -7.128305   -1.623444   -1.095868
  H     -3.804539   -0.176152   -0.977386
  H     -4.796909    2.005074    0.901822
  H     -3.867613    2.251590   -0.571889
  H     -2.593622    2.244672    1.670684
  H      0.884639   -1.716109    0.616373
  H      3.218508   -1.924713   -0.096594
  H      5.595629    1.817047    0.152800
  H      7.929305    1.614223   -0.590105
  H      8.620648   -0.280449   -2.032160
  H      6.938002   -1.961599   -2.731927
  H      4.597572   -1.742918   -2.014499
  H      3.424563    2.318413   -0.658326
  H      1.097763    2.527774    0.077634
  H     -2.893420    0.299567    2.954692
  H     -2.687887   -1.636550    0.611649
  H     -3.320098   -1.908116    2.225728
  H     -5.212923   -0.335728    1.707495

----------------------------
CARTESIAN COORDINATES (A.U.)
----------------------------
  NO LB      ZA    FRAG     MASS         X           Y           Z
   0 O     8.0000    0    15.999  -10.838148   -5.675736    1.285911
   1 C     6.0000    0    12.011  -10.554319   -3.515382    0.635917
   2 N     7.0000    0    14.007  -11.952567   -2.276922   -1.224194
   3 C     6.0000    0    12.011  -11.093917    0.148821   -1.819363
   4 O     8.0000    0    15.999  -12.152894    1.619215   -3.190848
   5 C     6.0000    0    12.011   -8.564952    0.399388   -0.471757
   6 C     6.0000    0    12.011   -7.641527    2.941333    0.471046
   7 C     6.0000    0    12.011   -5.164689    2.576223    1.954679
   8 C     6.0000    0    12.011   -2.793450    2.531172    0.310032
   9 O     8.0000    0    15.999   -2.467636    3.641713   -1.647871
  10 N     7.0000    0    14.007   -0.990664    1.025323    1.542574
  11 C     6.0000    0    12.011    1.579551    0.792893    0.744336
  12 C     6.0000    0    12.011    2.716690   -1.575251    0.620985
  13 C     6.0000    0    12.011    5.211671   -1.786714   -0.149484
  14 C     6.0000    0    12.011    6.630926    0.340008   -0.824297
  15 C     6.0000    0    12.011    9.294278    0.100483   -1.654262
  16 C     6.0000    0    12.011   11.111653    1.882877   -0.933341
  17 C     6.0000    0    12.011   13.608046    1.657697   -1.711295
  18 C     6.0000    0    12.011   14.344859   -0.354826   -3.232122
  19 C     6.0000    0    12.011   12.561669   -2.140385   -3.965383
  20 C     6.0000    0    12.011   10.066474   -1.915567   -3.183777
  21 C     6.0000    0    12.011    5.446526    2.700544   -0.689218
  22 C     6.0000    0    12.011    2.956029    2.935686    0.088495
  23 C     6.0000    0    12.011   -2.012419   -0.237653    3.644528
  24 O     8.0000    0    15.999   -0.839198   -1.530357    5.101433
  25 C     6.0000    0    12.011   -4.852862    0.210746    3.649544
  26 C     6.0000    0    12.011   -6.181026   -2.229641    2.678066
  27 C     6.0000    0    12.011   -8.768943   -1.516414    1.685972
  28 H     1.0000    0     1.008  -13.470544   -3.067864   -2.070891
  29 H     1.0000    0     1.008   -7.189537   -0.332880   -1.846992
  30 H     1.0000    0     1.008   -9.064844    3.789041    1.704197
  31 H     1.0000    0     1.008   -7.308729    4.254889   -1.080714
  32 H     1.0000    0     1.008   -4.901236    4.241815    3.157134
  33 H     1.0000    0     1.008    1.671726   -3.242976    1.164776
  34 H     1.0000    0     1.008    6.082099   -3.637180   -0.182535
  35 H     1.0000    0     1.008   10.574207    3.433722    0.288751
  36 H     1.0000    0     1.008   14.984216    3.050439   -1.115137
  37 H     1.0000    0     1.008   16.290663   -0.529971   -3.840225
  38 H     1.0000    0     1.008   13.110924   -3.706885   -5.162594
  39 H     1.0000    0     1.008    8.688153   -3.293637   -3.806851
  40 H     1.0000    0     1.008    6.471487    4.381167   -1.244057
  41 H     1.0000    0     1.008    2.074471    4.776801    0.146706
  42 H     1.0000    0     1.008   -5.467771    0.566099    5.583559
  43 H     1.0000    0     1.008   -5.079370   -3.092632    1.155849
  44 H     1.0000    0     1.008   -6.274077   -3.605817    4.206017
  45 H     1.0000    0     1.008   -9.850997   -0.634434    3.226697

--------------------------------
INTERNAL COORDINATES (ANGSTROEM)
--------------------------------
 O      0   0   0     0.000000000000     0.00000000     0.00000000
 C      1   0   0     1.203244988645     0.00000000     0.00000000
 N      2   1   0     1.394950789620   125.58251023     0.00000000
 C      3   2   1     1.397642969158   114.71216535   186.28803228
 O      4   3   2     1.202579148450   125.36293817   187.15340119
 C      4   3   2     1.522199934782   105.08511182     9.61623989
 C      6   4   3     1.515616717714   120.99608561   210.68959804
 C      7   6   4     1.540005763925   109.32182876   174.93872132
 C      8   7   6     1.527267233554   114.24912986    85.17096827
 O      9   8   7     1.203554053512   126.91488017    30.99654980
 N      9   8   7     1.403744269940   107.60503718   208.70195537
 C     11   9   8     1.429485171037   123.92885437   188.27537051
 C     12  11   9     1.391686037032   120.18134317   225.51251664
 C     13  12  11     1.386329867844   119.88541868   180.13964493
 C     14  13  12     1.399331573338   121.41792016   359.72989712
 C     15  14  13     1.481663859597   121.15619194   180.20301240
 C     16  15  14     1.400022018375   120.99822881   218.44442942
 C     17  16  15     1.388815125653   120.98579536   179.99117088
 C     18  17  16     1.390645008857   120.26127567     0.08479853
 C     19  18  17     1.390604293348   119.44433029   359.94930896
 C     20  19  18     1.388770373984   120.25538154   359.96423963
 C     15  14  13     1.399388851955   117.67681018     0.16810730
 C     22  15  14     1.386272784136   121.40480542     0.10224250
 C     11   9   8     1.405790595500   112.09409349     8.60738721
 O     24  11   9     1.203235798023   125.36671486   184.35557101
 C     24  11   9     1.521713460539   107.88806637     7.35019623
 C     26  24  11     1.557551040765   108.41281600   103.42002673
 C     27  26  24     1.514432552409   108.41127828   202.50042511
 H      3   2   1     1.010539802336   122.67782035     6.49514120
 H      6   4   3     1.099779163836   103.95405349    88.64887076
 H      7   6   4     1.092863420737   109.79480151    54.80871152
 H      7   6   4     1.090174879698   111.71706877   295.74141280
 H      8   7   6     1.095985285731   107.65910487   199.90227184
 H     13  12  11     1.080476676068   120.11328253   358.75495724
 H     14  13  12     1.082288642743   118.88799006   178.25158832
 H     17  16  15     1.082872530795   119.53134493     1.59268907
 H     18  17  16     1.083066632371   119.65939201   180.57263556
 H     19  18  17     1.082761634342   120.27664677   179.94776266
 H     20  19  18     1.083059008766   120.07777114   179.48371422
 H     21  20  19     1.082819314227   119.47541268   178.48749235
 H     22  15  14     1.082278542185   119.68268489   181.60518705
 H     23  22  15     1.080641334143   119.98605530   181.02922533
 H     26  24  11     1.090259314976   108.86491146   221.33168408
 H     27  26  24     1.094200047084   110.40222056   322.20705483
 H     27  26  24     1.089276885899   109.25126112    79.55152173
 H     28  27  26     1.100200620618   108.63002005   300.94786805

---------------------------
INTERNAL COORDINATES (A.U.)
---------------------------
 O      0   0   0     0.000000000000     0.00000000     0.00000000
 C      1   0   0     2.273803500553     0.00000000     0.00000000
 N      2   1   0     2.636074962679   125.58251023     0.00000000
 C      3   2   1     2.641162444708   114.71216535   186.28803228
 O      4   3   2     2.272545244935   125.36293817   187.15340119
 C      4   3   2     2.876540997811   105.08511182     9.61623989
 C      6   4   3     2.864100520472   120.99608561   210.68959804
 C      7   6   4     2.910189138479   109.32182876   174.93872132
 C      8   7   6     2.886116804728   114.24912986    85.17096827
 O      9   8   7     2.274387548508   126.91488017    30.99654980
 N      9   8   7     2.652692232248   107.60503718   208.70195537
 C     11   9   8     2.701335485761   123.92885437   188.27537051
 C     12  11   9     2.629905474393   120.18134317   225.51251664
 C     13  12  11     2.619783781500   119.88541868   180.13964493
 C     14  13  12     2.644353444158   121.41792016   359.72989712
 C     15  14  13     2.799938917168   121.15619194   180.20301240
 C     16  15  14     2.645658196188   120.99822881   218.44442942
 C     17  16  15     2.624480238131   120.98579536   179.99117088
 C     18  17  16     2.627938216244   120.26127567     0.08479853
 C     19  18  17     2.627861275084   119.44433029   359.94930896
 C     20  19  18     2.624395669733   120.25538154   359.96423963
 C     15  14  13     2.644461685058   117.67681018     0.16810730
 C     22  15  14     2.619675908926   121.40480542     0.10224250
 C     11   9   8     2.656559227137   112.09409349     8.60738721
 O     24  11   9     2.273786132794   125.36671486   184.35557101
 C     24  11   9     2.875621694720   107.88806637     7.35019623
 C     26  24  11     2.943344906649   108.41281600   103.42002673
 C     27  26  24     2.861862772348   108.41127828   202.50042511
 H      3   2   1     1.909643473843   122.67782035     6.49514120
 H      6   4   3     2.078281427442   103.95405349    88.64887076
 H      7   6   4     2.065212566974   109.79480151    54.80871152
 H      7   6   4     2.060131960709   111.71706877   295.74141280
 H      8   7   6     2.071112036840   107.65910487   199.90227184
 H     13  12  11     2.041805011858   120.11328253   358.75495724
 H     14  13  12     2.045229132637   118.88799006   178.25158832
 H     17  16  15     2.046332521149   119.53134493     1.59268907
 H     18  17  16     2.046699319969   119.65939201   180.57263556
 H     19  18  17     2.046122957223   120.27664677   179.94776266
 H     20  19  18     2.046684913444   120.07777114   179.48371422
 H     21  20  19     2.046231956410   119.47541268   178.48749235
 H     22  15  14     2.045210045350   119.68268489   181.60518705
 H     23  22  15     2.042116170526   119.98605530   181.02922533
 H     26  24  11     2.060291520262   108.86491146   221.33168408
 H     27  26  24     2.067738424713   110.40222056   322.20705483
 H     27  26  24     2.058434998359   109.25126112    79.55152173
 H     28  27  26     2.079077865338   108.63002005   300.94786805



           ************************************************************
           *        Program running with 16 parallel MPI-processes    *
           *              working on a common directory               *
           ************************************************************
------------------------------------------------------------------------------
                   ___                                                        
                  /   \      - P O W E R E D   B Y -                         
                 /     \                                                     
                 |  |  |   _    _      __       _____    __    __             
                 |  |  |  | |  | |    /  \     |  _  \  |  |  /  |          
                  \  \/   | |  | |   /    \    | | | |  |  | /  /          
                 / \  \   | |__| |  /  /\  \   | |_| |  |  |/  /          
                |  |  |   |  __  | /  /__\  \  |    /   |      \           
                |  |  |   | |  | | |   __   |  |    \   |  |\   \          
                \     /   | |  | | |  |  |  |  | |\  \  |  | \   \       
                 \___/    |_|  |_| |__|  |__|  |_| \__\ |__|  \__/        
                                                                              
                      - O R C A' S   B I G   F R I E N D -                    
                                      &                                       
                       - I N T E G R A L  F E E D E R -                       
                                                                              
 v1 FN, 2020, v2 2021, v3 2022-2024                                           
------------------------------------------------------------------------------


----------------------
SHARK INTEGRAL PACKAGE
----------------------

Number of atoms                             ...     46
Number of basis functions                   ...    976
Number of shells                            ...    380
Maximum angular momentum                    ...      3
Integral batch strategy                     ... SHARK/LIBINT Hybrid
RI-J (if used) integral strategy            ... SPLIT-RIJ (Revised 2003 algorithm where possible)
Printlevel                                  ...      1
Contraction scheme used                     ... SEGMENTED contraction
Prescreening option                         ... SCHWARTZ
   Thresh                                   ... 2.500e-11
   Tcut                                     ... 2.500e-12
   Tpresel                                  ... 2.500e-12 
Coulomb Range Separation                    ... NOT USED
Exchange Range Separation                   ... NOT USED
Multipole approximations                    ... NOT USED
Finite Nucleus Model                        ... NOT USED
CABS basis                                  ... NOT available
Auxiliary Coulomb fitting basis             ... AVAILABLE
   # of basis functions in Aux-J            ...   1570
   # of shells in Aux-J                     ...    510
   Maximum angular momentum in Aux-J        ...      4
Auxiliary J/K fitting basis                 ... NOT available
Auxiliary Correlation fitting basis         ... NOT available
Auxiliary 'external' fitting basis          ... NOT available

Checking pre-screening integrals            ... done (  0.0 sec) Dimension = 380
   => SHARK Basis and OBASIS are compatible. Storing Pre-screening
Shell pair information
Shell pair cut-off parameter TPreSel        ...   2.5e-12
Total number of shell pairs                 ...     72390
Shell pairs after pre-screening             ...     42406
Total number of primitive shell pairs       ...    224116
Primitive shell pairs kept                  ...     86617
          la=0 lb=0:  10620 shell pairs
          la=1 lb=0:  12291 shell pairs
          la=1 lb=1:   3567 shell pairs
          la=2 lb=0:   6010 shell pairs
          la=2 lb=1:   3517 shell pairs
          la=2 lb=2:    878 shell pairs
          la=3 lb=0:   2843 shell pairs
          la=3 lb=1:   1685 shell pairs
          la=3 lb=2:    798 shell pairs
          la=3 lb=3:    197 shell pairs

Checking whether 4 symmetric matrices of dimension 976 fit in memory
:Max Core in MB      =   4096.00
 MB in use           =     62.22
 MB left             =   4033.78
 MB needed           =     14.55
 Data fit in memory  = YES
Calculating RI/J V-Matrix + Cholesky decomp.... done (  0.1 sec)
Calculating Nuclear repulsion               ... done (  0.0 sec) ENN=   2403.962502727916 Eh

Diagonalization of the overlap matrix:
Smallest eigenvalue                        ... 6.570e-06
Time for diagonalization                   ...    0.151 sec
Threshold for overlap eigenvalues          ... 1.000e-07
Number of eigenvalues below threshold      ... 0
Time for construction of square roots      ...    0.067 sec
Total time needed                          ...    0.223 sec

-------------------
DFT GRID GENERATION
-------------------

General Integration Accuracy     IntAcc      ... 4.388
Radial Grid Type                 RadialGrid  ... OptM3 with GC (2021)
Angular Grid (max. ang.)         AngularGrid ... 4 (Lebedev-302)
Angular grid pruning method      GridPruning ... 4 (adaptive)
Weight generation scheme         WeightScheme... mBecke (2022)
Basis function cutoff            BFCut       ... 1.0000e-11
Integration weight cutoff        WCut        ... 1.0000e-14
Partially contracted basis set               ... off
Rotationally invariant grid construction     ... off
Angular grids for H and He will be reduced by one unit

Total number of grid points                  ...   224140
Total number of batches                      ...     3527
Average number of points per batch           ...       63
Average number of grid points per atom       ...     4873

--------------------
COSX GRID GENERATION
--------------------

GRIDX 1
-------
General Integration Accuracy     IntAcc      ... 3.816
Radial Grid Type                 RadialGrid  ... OptM3 with GC (2021)
Angular Grid (max. ang.)         AngularGrid ... 1 (Lebedev-50)
Angular grid pruning method      GridPruning ... 4 (adaptive)
Weight generation scheme         WeightScheme... mBecke (2022)
Basis function cutoff            BFCut       ... 1.0000e-11
Integration weight cutoff        WCut        ... 1.0000e-14
Partially contracted basis set               ... on
Rotationally invariant grid construction     ... off
Angular grids for H and He will be reduced by one unit

Total number of grid points                  ...    28408
Total number of batches                      ...      247
Average number of points per batch           ...      115
Average number of grid points per atom       ...      618
UseSFitting                                  ... on

GRIDX 2
-------
General Integration Accuracy     IntAcc      ... 4.020
Radial Grid Type                 RadialGrid  ... OptM3 with GC (2021)
Angular Grid (max. ang.)         AngularGrid ... 2 (Lebedev-110)
Angular grid pruning method      GridPruning ... 4 (adaptive)
Weight generation scheme         WeightScheme... mBecke (2022)
Basis function cutoff            BFCut       ... 1.0000e-11
Integration weight cutoff        WCut        ... 1.0000e-14
Partially contracted basis set               ... on
Rotationally invariant grid construction     ... off
Angular grids for H and He will be reduced by one unit

Total number of grid points                  ...    62260
Total number of batches                      ...      508
Average number of points per batch           ...      122
Average number of grid points per atom       ...     1353
UseSFitting                                  ... on

GRIDX 3
-------
General Integration Accuracy     IntAcc      ... 4.338
Radial Grid Type                 RadialGrid  ... OptM3 with GC (2021)
Angular Grid (max. ang.)         AngularGrid ... 3 (Lebedev-194)
Angular grid pruning method      GridPruning ... 4 (adaptive)
Weight generation scheme         WeightScheme... mBecke (2022)
Basis function cutoff            BFCut       ... 1.0000e-11
Integration weight cutoff        WCut        ... 1.0000e-14
Partially contracted basis set               ... on
Rotationally invariant grid construction     ... off
Angular grids for H and He will be reduced by one unit

Total number of grid points                  ...   136296
Total number of batches                      ...     1085
Average number of points per batch           ...      125
Average number of grid points per atom       ...     2963
UseSFitting                                  ... on
Grids setup in   1.8 sec
Initializing property integral containers    ... done (  0.0 sec)

SHARK setup successfully completed in   2.6 seconds

Maximum memory used throughout the entire STARTUP-calculation: 104.1 MB


           ************************************************************
           *        Program running with 16 parallel MPI-processes    *
           *              working on a common directory               *
           ************************************************************
Occupation numbers will be reassigned to an Aufbau configuration
             **** ENERGY FILE WAS UPDATED (conjugate_row2_A2_H4.en.tmp) ****
Finished Guess after   0.7 sec
Maximum memory used throughout the entire GUESS-calculation: 99.0 MB


           ************************************************************
           *        Program running with 16 parallel MPI-processes    *
           *              working on a common directory               *
           ************************************************************
----------------------------------------D-I-I-S--------------------------------------------
Iteration    Energy (Eh)           Delta-E    RMSDP     MaxDP     DIISErr   Damp  Time(sec)
-------------------------------------------------------------------------------------------
               ***  Starting incremental Fock matrix formation  ***
    1    -1259.4065792682986284     0.00e+00  7.27e-05  9.97e-04  4.26e-03  0.700   6.8
    2    -1259.4066242518315448    -4.50e-05  6.20e-05  8.53e-04  3.37e-03  0.700   2.8
                               ***Turning on AO-DIIS***
                              *** Initializing SOSCF ***
---------------------------------------S-O-S-C-F--------------------------------------
Iteration    Energy (Eh)           Delta-E    RMSDP     MaxDP     MaxGrad    Time(sec)
--------------------------------------------------------------------------------------
    3    -1259.4066603262035642    -3.61e-05  1.55e-04  2.08e-03  2.54e-03     2.8
               *** Restarting incremental Fock matrix formation ***
    4    -1259.4067539375487286    -9.36e-05  3.64e-05  1.66e-03  1.31e-04     6.7
    5    -1259.4067541853478360    -2.48e-07  2.10e-05  1.30e-03  2.16e-04     3.9
    6    -1259.4067550164709246    -8.31e-07  1.42e-05  1.73e-04  4.88e-05     3.6
    7    -1259.4067551575390098    -1.41e-07  5.42e-06  3.01e-04  1.48e-05     3.4
    8    -1259.4067551498578723     7.68e-09  3.96e-06  2.02e-04  2.41e-05     2.7
                 **** Energy Check signals convergence ****

               *****************************************************
               *                     SUCCESS                       *
               *           SCF CONVERGED AFTER   8 CYCLES          *
               *****************************************************

Recomputing exchange energy using gridx3       ... done (   10.818 sec)
Old exchange energy                            :    -33.372028484 Eh
New exchange energy                            :    -33.372023254 Eh
Exchange energy change after final integration :      0.000005231 Eh
Total energy after final integration           :  -1259.406749928 Eh
             **** ENERGY FILE WAS UPDATED (conjugate_row2_A2_H4.en.tmp) ****

----------------
TOTAL SCF ENERGY
----------------

Total Energy       :      -1259.40674992806589 Eh          -34270.19993 eV

Components:
Nuclear Repulsion  :       2403.96250272791576 Eh           65415.14534 eV
Electronic Energy  :      -3663.36925788651297 Eh          -99685.34541 eV
One Electron Energy:      -6489.43355519936540 Eh         -176586.46452 eV
Two Electron Energy:       2826.06429731285243 Eh           76901.11911 eV

Virial components:
Potential Energy   :      -2513.39487189070041 Eh          -68392.95149 eV
Kinetic Energy     :       1253.98812196263452 Eh           34122.75157 eV
Virial Ratio       :          2.00432111586269

DFT components:
N(Alpha)           :       97.999969326574 electrons
N(Beta)            :       97.999969326574 electrons
N(Total)           :      195.999938653149 electrons
E(X)               :     -132.675077541587 Eh       
E(C)               :       -7.941524943575 Eh       
E(XC)              :     -140.616602485162 Eh       

---------------
SCF CONVERGENCE
---------------

  Last Energy change         ...   -7.6811e-09  Tolerance :   1.0000e-08
  Last MAX-Density change    ...    2.0246e-04  Tolerance :   1.0000e-07
  Last RMS-Density change    ...    3.9580e-06  Tolerance :   5.0000e-09
  Last DIIS Error            ...    2.5384e-03  Tolerance :   5.0000e-07
  Last Orbital Gradient      ...    2.4093e-05  Tolerance :   1.0000e-05
  Last Orbital Rotation      ...    3.0796e-05  Tolerance :   1.0000e-05


Total SCF time: 0 days 0 hours 0 min 46 sec 
Finished LeanSCF after  47.0 sec

Maximum memory used throughout the entire LEANSCF-calculation: 138.5 MB

-------------------------   --------------------
FINAL SINGLE POINT ENERGY     -1259.406749928066
-------------------------   --------------------



           ************************************************************
           *        Program running with 16 parallel MPI-processes    *
           *              working on a common directory               *
           ************************************************************
------------------------------------------------------------------------------
                         ORCA SCF GRADIENT CALCULATION
------------------------------------------------------------------------------

Nuc. rep. gradient        (SHARK) ... done (  0.0 sec)
HCore & Overlap gradient  (SHARK) ... done (  0.3 sec)
Split-RIJ-J gradient      (SHARK) ... done (  1.8 sec)
COSX-gradient                     ... done ( 18.3 sec)
XC gradient                       ... done (  2.4 sec)

------------------
CARTESIAN GRADIENT
------------------

   1   O   :    0.000002057   -0.000121402    0.000127690
   2   C   :   -0.000126503    0.000334048   -0.000365969
   3   N   :    0.000080693    0.000072683    0.000141598
   4   C   :    0.000045348   -0.000449235    0.000150967
   5   O   :   -0.000026834    0.000136402   -0.000076253
   6   C   :    0.000058547   -0.000074002   -0.000056056
   7   C   :   -0.000055428    0.000064961    0.000061030
   8   C   :    0.000022597   -0.000034881   -0.000017749
   9   C   :    0.000256824   -0.000227509    0.000192592
  10   O   :   -0.000055758    0.000037577   -0.000007152
  11   N   :   -0.000222300    0.000035041   -0.000059388
  12   C   :   -0.000267591    0.000057907    0.000089761
  13   C   :    0.000328559   -0.000011613   -0.000057216
  14   C   :   -0.000144470    0.000003604   -0.000017240
  15   C   :    0.000237969   -0.000029610   -0.000082956
  16   C   :   -0.000338368    0.000039337    0.000109293
  17   C   :    0.000134018   -0.000062449   -0.000129820
  18   C   :   -0.000068153    0.000041981    0.000050170
  19   C   :    0.000010051   -0.000007156   -0.000004614
  20   C   :   -0.000083588   -0.000020515   -0.000005106
  21   C   :    0.000193902    0.000026727    0.000020645
  22   C   :   -0.000086813    0.000001711    0.000088036
  23   C   :    0.000262503   -0.000083810   -0.000142688
  24   C   :    0.000045918    0.000202383   -0.000009206
  25   O   :   -0.000043026   -0.000020729   -0.000052125
  26   C   :    0.000100944    0.000008619    0.000065461
  27   C   :   -0.000012420   -0.000140273   -0.000009815
  28   C   :   -0.000030250    0.000116528    0.000076143
  29   H   :    0.000007887    0.000007860   -0.000020135
  30   H   :   -0.000032745    0.000083694   -0.000051598
  31   H   :    0.000034250    0.000002447    0.000009133
  32   H   :   -0.000007889   -0.000011352   -0.000003760
  33   H   :   -0.000019656    0.000046208   -0.000063210
  34   H   :   -0.000029167    0.000046530   -0.000023660
  35   H   :   -0.000058528   -0.000009089    0.000048184
  36   H   :    0.000036338    0.000004495    0.000010799
  37   H   :   -0.000001185   -0.000006268   -0.000012050
  38   H   :   -0.000005788    0.000002920   -0.000000046
  39   H   :    0.000009508    0.000006202    0.000011517
  40   H   :    0.000012525    0.000000451   -0.000017213
  41   H   :   -0.000074769    0.000028879    0.000008584
  42   H   :   -0.000017955   -0.000031057    0.000043524
  43   H   :   -0.000062545   -0.000044312   -0.000039977
  44   H   :    0.000021524    0.000075073   -0.000013064
  45   H   :   -0.000018795    0.000012532   -0.000009552
  46   H   :   -0.000011439   -0.000111540    0.000042490

Difference to translation invariance:
           :    0.0000000000   -0.0000000000   -0.0000000000

Difference to rotation invariance:
           :    0.0002272962   -0.0000769033    0.0000522220

Norm of the Cartesian gradient     ...    0.0012652072
RMS gradient                       ...    0.0001077016
MAX gradient                       ...    0.0004492347

-------
TIMINGS
-------

Total SCF gradient time     ....       22.836 sec

Densities                   ....       0.008 sec  (  0.0%)
One electron gradient       ....       0.323 sec  (  1.4%)
RI-J Coulomb gradient       ....       1.779 sec  (  7.8%)
COSX gradient               ....      18.277 sec  ( 80.0%)
XC gradient                 ....       2.449 sec  ( 10.7%)

Maximum memory used throughout the entire SCFGRAD-calculation: 163.4 MB
------------------------------------------------------------------------------
                         ORCA GEOMETRY RELAXATION STEP
------------------------------------------------------------------------------

Reading the OPT-File                    .... done
Getting information on internals        .... done
Copying old internal coords+grads       .... done
Making the new internal coordinates     .... (2022 redundants) done
Validating the new internal coordinates .... (2022 redundants) done
Calculating the B-matrix                .... done
Calculating the G,G- and P matrices     .... done
Transforming gradient to internals      .... done
Projecting the internal gradient        .... done
Number of atoms                         ....  46
Number of internal coordinates          .... 268
Current Energy                          .... -1259.406749928 Eh
Current gradient norm                   ....     0.001265207 Eh/bohr
Maximum allowed component of the step   ....  0.300
Current trust radius                    ....  0.700
Updating the Hessian (BFGS)             .... done
Forming the augmented Hessian           .... done
Diagonalizing the augmented Hessian     .... done
Last element of RFO vector              ....  0.999710509
Lowest eigenvalues of augmented Hessian:
 -0.000006477  0.004939141  0.008934319  0.015141093  0.016019032
Length of the computed step             ....  0.024067275
The final length of the internal step   ....  0.024067275
Converting the step to Cartesian space:
 Initial RMS(Int)=    0.0014701428
Transforming coordinates:
 Iter   0:  RMS(Cart)=    0.0120934773 RMS(Int)=    0.0014701079
done
Storing new coordinates                 .... done
The predicted energy change is          ....    -0.000003240
Previously predicted energy change      ....    -0.000007135
Actually observed energy change         ....     0.000003193
Ratio of predicted to observed change   ....     0.447488723
New trust radius                        ....     0.466666667

                                .--------------------.
          ----------------------|Geometry convergence|-------------------------
          Item                value                   Tolerance       Converged
          ---------------------------------------------------------------------
          Energy change       0.0000031928            0.0000050000      YES
          RMS gradient        0.0000502099            0.0001000000      YES
          MAX gradient        0.0002285548            0.0003000000      YES
          RMS step            0.0014701428            0.0020000000      YES
          MAX step            0.0070268125            0.0040000000      NO
          -------------------------------------------------------------------------
          ........................................................
          Max(Bonds)      0.0005      Max(Angles)    0.06
          Max(Dihed)        0.40      Max(Improp)    0.00
          ---------------------------------------------------------------------

The optimization has not yet converged - more geometry cycles are needed


    ---------------------------------------------------------------------------
                         Redundant Internal Coordinates
                            (Angstroem and degrees)

        Definition                    Value    dE/dq     Step     New-Value
    ----------------------------------------------------------------------------
     1. B(C   1,O   0)                1.2032  0.000152 -0.0002    1.2030   
     2. B(N   2,C   1)                1.3950 -0.000213  0.0005    1.3954   
     3. B(C   3,N   2)                1.3976 -0.000198  0.0004    1.3981   
     4. B(O   4,C   3)                1.2026  0.000146 -0.0002    1.2024   
     5. B(C   5,C   3)                1.5222 -0.000033  0.0002    1.5224   
     6. B(C   6,C   5)                1.5156  0.000024 -0.0000    1.5156   
     7. B(C   7,C   6)                1.5400  0.000015 -0.0001    1.5399   
     8. B(C   8,C   7)                1.5273  0.000006  0.0002    1.5275   
     9. B(O   9,C   8)                1.2036  0.000017 -0.0001    1.2034   
    10. B(N  10,C   8)                1.4037 -0.000229  0.0003    1.4040   
    11. B(C  11,N  10)                1.4295  0.000051  0.0001    1.4296   
    12. B(C  12,C  11)                1.3917  0.000040 -0.0002    1.3915   
    13. B(C  13,C  12)                1.3863 -0.000129  0.0001    1.3864   
    14. B(C  14,C  13)                1.3993  0.000051 -0.0001    1.3992   
    15. B(C  15,C  14)                1.4817 -0.000108  0.0003    1.4819   
    16. B(C  16,C  15)                1.4000  0.000055 -0.0002    1.3998   
    17. B(C  17,C  16)                1.3888 -0.000074  0.0001    1.3889   
    18. B(C  18,C  17)                1.3906 -0.000018  0.0000    1.3907   
    19. B(C  19,C  18)                1.3906 -0.000027  0.0000    1.3907   
    20. B(C  20,C  19)                1.3888 -0.000072  0.0001    1.3888   
    21. B(C  20,C  15)                1.4001  0.000051 -0.0002    1.3999   
    22. B(C  21,C  14)                1.3994  0.000049 -0.0001    1.3993   
    23. B(C  22,C  21)                1.3863 -0.000112  0.0001    1.3864   
    24. B(C  22,C  11)                1.3917  0.000002 -0.0001    1.3916   
    25. B(C  23,N  10)                1.4058 -0.000090  0.0000    1.4058   
    26. B(O  24,C  23)                1.2032 -0.000044 -0.0001    1.2032   
    27. B(C  25,C  23)                1.5217 -0.000035  0.0003    1.5220   
    28. B(C  25,C   7)                1.5487 -0.000011  0.0003    1.5491   
    29. B(C  26,C  25)                1.5576  0.000063 -0.0002    1.5574   
    30. B(C  27,C   5)                1.5308 -0.000036  0.0001    1.5309   
    31. B(C  27,C   1)                1.5233 -0.000006  0.0001    1.5234   
    32. B(C  27,C  26)                1.5144  0.000029  0.0000    1.5144   
    33. B(H  28,N   2)                1.0105 -0.000001  0.0000    1.0105   
    34. B(H  29,C   5)                1.0998 -0.000017  0.0000    1.0998   
    35. B(H  30,C   6)                1.0929 -0.000018  0.0000    1.0929   
    36. B(H  31,C   6)                1.0902 -0.000005 -0.0000    1.0902   
    37. B(H  32,C   7)                1.0960 -0.000002 -0.0000    1.0960   
    38. B(H  33,C  12)                1.0805 -0.000030  0.0001    1.0806   
    39. B(H  34,C  13)                1.0823 -0.000018  0.0000    1.0823   
    40. B(H  35,C  16)                1.0829 -0.000000  0.0000    1.0829   
    41. B(H  36,C  17)                1.0831 -0.000009  0.0000    1.0831   
    42. B(H  37,C  18)                1.0828 -0.000006  0.0000    1.0828   
    43. B(H  38,C  19)                1.0831 -0.000008  0.0000    1.0831   
    44. B(H  39,C  20)                1.0828 -0.000003  0.0000    1.0828   
    45. B(H  40,C  21)                1.0823 -0.000016  0.0000    1.0823   
    46. B(H  41,C  22)                1.0806 -0.000019  0.0001    1.0807   
    47. B(H  42,C  25)                1.0903 -0.000026  0.0000    1.0903   
    48. B(H  43,C  26)                1.0942 -0.000011  0.0000    1.0942   
    49. B(H  44,C  26)                1.0893 -0.000014  0.0000    1.0893   
    50. B(H  45,C  27)                1.1002 -0.000009 -0.0000    1.1002   
    51. A(O   0,C   1,N   2)          125.58  0.000049   -0.00    125.58   
    52. A(O   0,C   1,C  27)          129.27 -0.000129    0.03    129.29   
    53. A(N   2,C   1,C  27)          105.08  0.000079   -0.02    105.06   
    54. A(C   1,N   2,H  28)          122.68  0.000033   -0.01    122.67   
    55. A(C   1,N   2,C   3)          114.71 -0.000038    0.01    114.72   
    56. A(C   3,N   2,H  28)          122.61  0.000005   -0.00    122.61   
    57. A(N   2,C   3,C   5)          105.09  0.000086   -0.03    105.06   
    58. A(O   4,C   3,C   5)          129.50 -0.000109    0.02    129.52   
    59. A(N   2,C   3,O   4)          125.36  0.000024    0.00    125.37   
    60. A(C   3,C   5,C  27)          103.28 -0.000058    0.00    103.28   
    61. A(C   3,C   5,H  29)          103.95 -0.000025    0.03    103.99   
    62. A(C   6,C   5,H  29)          108.49 -0.000035    0.02    108.51   
    63. A(C  27,C   5,H  29)          107.87  0.000064   -0.05    107.83   
    64. A(C   3,C   5,C   6)          121.00  0.000053   -0.02    120.97   
    65. A(C   6,C   5,C  27)          111.41  0.000006    0.01    111.41   
    66. A(C   5,C   6,H  30)          109.79  0.000045   -0.02    109.77   
    67. A(C   5,C   6,C   7)          109.32 -0.000000    0.01    109.33   
    68. A(C   7,C   6,H  31)          109.06  0.000012    0.00    109.06   
    69. A(C   5,C   6,H  31)          111.72 -0.000029    0.01    111.73   
    70. A(H  30,C   6,H  31)          107.42  0.000012   -0.02    107.40   
    71. A(C   7,C   6,H  30)          109.49 -0.000040    0.01    109.51   
    72. A(C   8,C   7,H  32)          103.82 -0.000023    0.01    103.83   
    73. A(C   6,C   7,H  32)          107.66 -0.000069    0.01    107.67   
    74. A(C   6,C   7,C   8)          114.25  0.000069   -0.03    114.22   
    75. A(C   8,C   7,C  25)          103.29 -0.000056    0.03    103.32   
    76. A(C   6,C   7,C  25)          119.16  0.000000    0.02    119.18   
    77. A(C  25,C   7,H  32)          107.47  0.000080   -0.04    107.43   
    78. A(O   9,C   8,N  10)          125.44  0.000043   -0.03    125.41   
    79. A(C   7,C   8,O   9)          126.91 -0.000105    0.03    126.95   
    80. A(C   7,C   8,N  10)          107.61  0.000063   -0.01    107.60   
    81. A(C   8,N  10,C  23)          112.09 -0.000007    0.04    112.13   
    82. A(C   8,N  10,C  11)          123.93 -0.000000   -0.02    123.91   
    83. A(C  11,N  10,C  23)          123.98  0.000007   -0.02    123.96   
    84. A(C  12,C  11,C  22)          119.71 -0.000178    0.06    119.77   
    85. A(N  10,C  11,C  22)          120.10  0.000098   -0.03    120.07   
    86. A(N  10,C  11,C  12)          120.18  0.000079   -0.02    120.16   
    87. A(C  13,C  12,H  33)          119.99 -0.000011   -0.00    119.98   
    88. A(C  11,C  12,H  33)          120.11 -0.000104    0.03    120.15   
    89. A(C  11,C  12,C  13)          119.89  0.000115   -0.03    119.86   
    90. A(C  12,C  13,C  14)          121.42  0.000031   -0.02    121.40   
    91. A(C  14,C  13,H  34)          119.68  0.000056   -0.01    119.66   
    92. A(C  12,C  13,H  34)          118.89 -0.000086    0.03    118.92   
    93. A(C  15,C  14,C  21)          121.17  0.000058   -0.02    121.15   
    94. A(C  13,C  14,C  21)          117.68 -0.000114    0.04    117.72   
    95. A(C  13,C  14,C  15)          121.16  0.000056   -0.02    121.13   
    96. A(C  16,C  15,C  20)          118.06 -0.000141    0.04    118.10   
    97. A(C  14,C  15,C  20)          120.94  0.000046   -0.01    120.93   
    98. A(C  14,C  15,C  16)          121.00  0.000096   -0.02    120.97   
    99. A(C  15,C  16,C  17)          120.99  0.000074   -0.02    120.97   
   100. A(C  17,C  16,H  35)          119.46 -0.000073    0.01    119.48   
   101. A(C  15,C  16,H  35)          119.53 -0.000000    0.01    119.54   
   102. A(C  16,C  17,C  18)          120.26  0.000006   -0.00    120.26   
   103. A(C  18,C  17,H  36)          120.08 -0.000012    0.01    120.08   
   104. A(C  16,C  17,H  36)          119.66  0.000006   -0.00    119.66   
   105. A(C  17,C  18,C  19)          119.44 -0.000020    0.00    119.45   
   106. A(C  19,C  18,H  37)          120.28  0.000010   -0.00    120.28   
   107. A(C  17,C  18,H  37)          120.28  0.000009   -0.00    120.27   
   108. A(C  18,C  19,C  20)          120.26 -0.000000   -0.00    120.25   
   109. A(C  20,C  19,H  38)          119.67  0.000011   -0.00    119.66   
   110. A(C  18,C  19,H  38)          120.08 -0.000010    0.01    120.08   
   111. A(C  15,C  20,C  19)          120.99  0.000082   -0.02    120.97   
   112. A(C  19,C  20,H  39)          119.48 -0.000059    0.01    119.48   
   113. A(C  15,C  20,H  39)          119.51 -0.000023    0.01    119.52   
   114. A(C  14,C  21,C  22)          121.40  0.000036   -0.02    121.39   
   115. A(C  22,C  21,H  40)          118.90 -0.000097    0.04    118.93   
   116. A(C  14,C  21,H  40)          119.68  0.000062   -0.02    119.67   
   117. A(C  11,C  22,C  21)          119.90  0.000111   -0.03    119.87   
   118. A(C  21,C  22,H  41)          119.99 -0.000013    0.00    119.99   
   119. A(C  11,C  22,H  41)          120.10 -0.000098    0.03    120.13   
   120. A(O  24,C  23,C  25)          126.67 -0.000033    0.01    126.68   
   121. A(N  10,C  23,C  25)          107.89  0.000031    0.00    107.89   
   122. A(N  10,C  23,O  24)          125.37 -0.000001   -0.01    125.35   
   123. A(C  26,C  25,H  42)          108.55 -0.000047    0.01    108.57   
   124. A(C  23,C  25,H  42)          108.86  0.000056   -0.03    108.83   
   125. A(C   7,C  25,H  42)          111.86  0.000025   -0.04    111.82   
   126. A(C  23,C  25,C  26)          108.41  0.000030   -0.02    108.40   
   127. A(C   7,C  25,C  26)          115.53 -0.000017    0.04    115.57   
   128. A(C   7,C  25,C  23)          103.31 -0.000039    0.03    103.34   
   129. A(C  25,C  26,C  27)          108.41 -0.000005    0.02    108.44   
   130. A(C  27,C  26,H  44)          112.52 -0.000015    0.00    112.52   
   131. A(C  25,C  26,H  44)          109.25  0.000023   -0.01    109.24   
   132. A(C  27,C  26,H  43)          109.30  0.000026   -0.01    109.29   
   133. A(C  25,C  26,H  43)          110.40 -0.000056    0.04    110.44   
   134. A(H  43,C  26,H  44)          106.95  0.000025   -0.04    106.91   
   135. A(C   5,C  27,C  26)          111.09  0.000006    0.01    111.10   
   136. A(C   1,C  27,C  26)          120.95  0.000053   -0.03    120.92   
   137. A(C  26,C  27,H  45)          108.63 -0.000008    0.01    108.64   
   138. A(C   1,C  27,C   5)          103.39 -0.000064    0.01    103.40   
   139. A(C   5,C  27,H  45)          107.97  0.000127   -0.06    107.91   
   140. A(C   1,C  27,H  45)          104.01 -0.000104    0.05    104.06   
   141. D(C   3,N   2,C   1,C  27)      9.15  0.000020   -0.06      9.09   
   142. D(H  28,N   2,C   1,C  27)   -170.65  0.000004   -0.01   -170.66   
   143. D(C   3,N   2,C   1,O   0)   -173.71  0.000005    0.05   -173.66   
   144. D(H  28,N   2,C   1,O   0)      6.50 -0.000011    0.10      6.59   
   145. D(C   5,C   3,N   2,C   1)      9.62 -0.000011    0.07      9.69   
   146. D(O   4,C   3,N   2,H  28)      6.95  0.000011   -0.01      6.94   
   147. D(C   5,C   3,N   2,H  28)   -170.59  0.000006    0.02   -170.57   
   148. D(O   4,C   3,N   2,C   1)   -172.85 -0.000006    0.04   -172.80   
   149. D(C  27,C   5,C   3,O   4)    158.70 -0.000006   -0.03    158.67   
   150. D(C   6,C   5,C   3,O   4)     33.29  0.000000   -0.02     33.27   
   151. D(C  27,C   5,C   3,N   2)    -23.91  0.000004   -0.06    -23.96   
   152. D(H  29,C   5,C   3,N   2)     88.65  0.000043   -0.09     88.56   
   153. D(C   6,C   5,C   3,N   2)   -149.31  0.000010   -0.05   -149.36   
   154. D(C   7,C   6,C   5,C  27)     53.38  0.000006   -0.00     53.37   
   155. D(C   7,C   6,C   5,H  29)    -65.22 -0.000054    0.03    -65.19   
   156. D(C   7,C   6,C   5,C   3)    174.94 -0.000027   -0.01    174.93   
   157. D(H  30,C   6,C   5,H  29)    174.65 -0.000032    0.02    174.67   
   158. D(H  30,C   6,C   5,C   3)     54.81 -0.000006   -0.02     54.79   
   159. D(H  30,C   6,C   5,C  27)    -66.75  0.000028   -0.01    -66.77   
   160. D(C  25,C   7,C   6,H  30)     82.80  0.000002    0.08     82.88   
   161. D(C  25,C   7,C   6,C   5)    -37.52 -0.000028    0.10    -37.42   
   162. D(C   8,C   7,C   6,H  31)    -37.24 -0.000014    0.11    -37.13   
   163. D(C   8,C   7,C   6,C   5)     85.17 -0.000043    0.13     85.30   
   164. D(C  25,C   7,C   6,H  31)   -159.93  0.000001    0.07   -159.85   
   165. D(C   8,C   7,C   6,H  30)   -154.51 -0.000013    0.12   -154.39   
   166. D(N  10,C   8,C   7,C  25)    -20.34 -0.000008    0.10    -20.24   
   167. D(O   9,C   8,C   7,H  32)    -85.97  0.000041    0.07    -85.90   
   168. D(O   9,C   8,C   7,C   6)     31.00 -0.000022    0.07     31.07   
   169. D(O   9,C   8,C   7,C  25)    161.96 -0.000018    0.10    162.06   
   170. D(N  10,C   8,C   7,C   6)   -151.30 -0.000012    0.07   -151.23   
   171. D(C  11,N  10,C   8,C   7)   -171.72 -0.000013    0.00   -171.72   
   172. D(C  23,N  10,C   8,O   9)   -173.64 -0.000002    0.03   -173.61   
   173. D(C  23,N  10,C   8,C   7)      8.61 -0.000007    0.01      8.61   
   174. D(C  11,N  10,C   8,O   9)      6.02 -0.000007    0.03      6.05   
   175. D(C  22,C  11,N  10,C  23)   -134.82 -0.000027    0.37   -134.45   
   176. D(C  22,C  11,N  10,C   8)     45.55 -0.000021    0.38     45.93   
   177. D(C  12,C  11,N  10,C  23)     45.14 -0.000022    0.34     45.48   
   178. D(C  12,C  11,N  10,C   8)   -134.49 -0.000016    0.34   -134.14   
   179. D(H  33,C  12,C  11,C  22)    178.72  0.000010   -0.03    178.69   
   180. D(H  33,C  12,C  11,N  10)     -1.25  0.000005    0.00     -1.24   
   181. D(C  13,C  12,C  11,C  22)      0.10  0.000000    0.00      0.10   
   182. D(C  13,C  12,C  11,N  10)   -179.86 -0.000005    0.03   -179.83   
   183. D(H  34,C  13,C  12,H  33)     -0.37 -0.000017    0.07     -0.30   
   184. D(C  14,C  13,C  12,H  33)   -178.89 -0.000014    0.05   -178.84   
   185. D(C  14,C  13,C  12,C  11)     -0.27 -0.000005    0.02     -0.25   
   186. D(H  34,C  13,C  12,C  11)    178.25 -0.000009    0.04    178.29   
   187. D(C  21,C  14,C  13,H  34)   -178.34  0.000012   -0.05   -178.39   
   188. D(C  21,C  14,C  13,C  12)      0.17  0.000007   -0.03      0.14   
   189. D(C  15,C  14,C  13,H  34)      1.69  0.000014   -0.07      1.62   
   190. D(C  15,C  14,C  13,C  12)   -179.80  0.000009   -0.05   -179.85   
   191. D(C  20,C  15,C  14,C  21)   -141.50 -0.000036    0.37   -141.13   
   192. D(C  20,C  15,C  14,C  13)     38.47 -0.000039    0.39     38.86   
   193. D(C  16,C  15,C  14,C  21)     38.48 -0.000039    0.38     38.86   
   194. D(C  16,C  15,C  14,C  13)   -141.56 -0.000041    0.40   -141.15   
   195. D(H  35,C  16,C  15,C  20)   -178.43  0.000004   -0.02   -178.45   
   196. D(H  35,C  16,C  15,C  14)      1.59  0.000007   -0.04      1.56   
   197. D(C  17,C  16,C  15,C  20)     -0.03  0.000002   -0.01     -0.04   
   198. D(C  17,C  16,C  15,C  14)    179.99  0.000005   -0.03    179.97   
   199. D(C  18,C  17,C  16,C  15)      0.08 -0.000004    0.02      0.10   
   200. D(C  18,C  17,C  16,H  35)    178.48 -0.000005    0.03    178.51   
   201. D(H  36,C  17,C  16,H  35)     -1.03 -0.000005    0.03     -1.00   
   202. D(H  36,C  17,C  16,C  15)   -179.43 -0.000004    0.02   -179.41   
   203. D(C  19,C  18,C  17,C  16)     -0.05  0.000002   -0.00     -0.05   
   204. D(H  37,C  18,C  17,H  36)     -0.54  0.000002   -0.01     -0.55   
   205. D(H  37,C  18,C  17,C  16)    179.95  0.000001   -0.00    179.94   
   206. D(C  19,C  18,C  17,H  36)    179.46  0.000002   -0.01    179.45   
   207. D(H  38,C  19,C  18,H  37)     -0.51  0.000004   -0.01     -0.53   
   208. D(H  38,C  19,C  18,C  17)    179.48  0.000003   -0.01    179.47   
   209. D(C  20,C  19,C  18,H  37)    179.97  0.000003   -0.01    179.96   
   210. D(C  20,C  19,C  18,C  17)     -0.04  0.000002   -0.01     -0.05   
   211. D(H  39,C  20,C  19,H  38)     -1.03 -0.000006    0.03     -1.00   
   212. D(H  39,C  20,C  19,C  18)    178.49 -0.000005    0.03    178.52   
   213. D(C  15,C  20,C  19,H  38)   -179.43 -0.000004    0.02   -179.42   
   214. D(C  15,C  20,C  19,C  18)      0.09 -0.000003    0.01      0.10   
   215. D(H  39,C  20,C  15,C  16)   -178.45  0.000004   -0.02   -178.47   
   216. D(H  39,C  20,C  15,C  14)      1.52  0.000002   -0.01      1.52   
   217. D(C  19,C  20,C  15,C  16)     -0.06  0.000001   -0.00     -0.06   
   218. D(C  19,C  20,C  15,C  14)    179.92 -0.000001    0.01    179.93   
   219. D(H  40,C  21,C  14,C  15)      1.57  0.000001    0.00      1.57   
   220. D(H  40,C  21,C  14,C  13)   -178.39  0.000003   -0.02   -178.41   
   221. D(C  22,C  21,C  14,C  15)   -179.93 -0.000006    0.03   -179.90   
   222. D(C  22,C  21,C  14,C  13)      0.10 -0.000003    0.01      0.12   
   223. D(H  41,C  22,C  21,H  40)     -0.46 -0.000015    0.06     -0.40   
   224. D(H  41,C  22,C  21,C  14)   -178.97 -0.000010    0.03   -178.94   
   225. D(C  11,C  22,C  21,H  40)    178.24 -0.000006    0.04    178.28   
   226. D(C  11,C  22,C  21,C  14)     -0.27 -0.000002    0.01     -0.26   
   227. D(H  41,C  22,C  11,C  12)    178.87  0.000013   -0.04    178.83   
   228. D(H  41,C  22,C  11,N  10)     -1.17  0.000018   -0.07     -1.24   
   229. D(C  21,C  22,C  11,C  12)      0.16  0.000003   -0.02      0.15   
   230. D(C  21,C  22,C  11,N  10)   -179.87  0.000008   -0.05   -179.92   
   231. D(C  25,C  23,N  10,C  11)   -172.32  0.000034   -0.11   -172.43   
   232. D(C  25,C  23,N  10,C   8)      7.35  0.000028   -0.11      7.24   
   233. D(O  24,C  23,N  10,C  11)      4.69 -0.000026    0.02      4.71   
   234. D(O  24,C  23,N  10,C   8)   -175.64 -0.000032    0.02   -175.62   
   235. D(H  42,C  25,C  23,N  10)   -138.67 -0.000063    0.22   -138.45   
   236. D(C  26,C  25,C  23,O  24)    -73.54  0.000005    0.10    -73.43   
   237. D(C   7,C  25,C  23,O  24)    163.41  0.000031    0.04    163.45   
   238. D(C   7,C  25,C  23,N  10)    -19.64 -0.000029    0.17    -19.47   
   239. D(C  26,C  25,C   7,H  32)    156.01  0.000013   -0.18    155.83   
   240. D(C  26,C  25,C   7,C   8)    -94.62 -0.000007   -0.17    -94.79   
   241. D(C  26,C  25,C   7,C   6)     33.34  0.000038   -0.17     33.17   
   242. D(C  26,C  25,C  23,N  10)    103.42 -0.000055    0.23    103.65   
   243. D(C  23,C  25,C   7,H  32)    -85.78  0.000016   -0.16    -85.94   
   244. D(C  23,C  25,C   7,C   8)     23.59 -0.000004   -0.15     23.44   
   245. D(C  23,C  25,C   7,C   6)    151.55  0.000040   -0.15    151.40   
   246. D(H  43,C  26,C  25,H  42)   -155.90 -0.000040    0.17   -155.74   
   247. D(H  43,C  26,C  25,C  23)    -37.79  0.000018    0.13    -37.67   
   248. D(H  43,C  26,C  25,C   7)     77.54 -0.000020    0.17     77.72   
   249. D(C  27,C  26,C  25,H  42)     84.39 -0.000035    0.14     84.53   
   250. D(C  27,C  26,C  25,C  23)   -157.50  0.000022    0.10   -157.40   
   251. D(C  27,C  26,C  25,C   7)    -42.16 -0.000016    0.15    -42.02   
   252. D(C   5,C  27,C  26,C  25)     59.57 -0.000001   -0.07     59.50   
   253. D(C   1,C  27,C  26,H  44)    -58.11 -0.000026   -0.07    -58.18   
   254. D(C   1,C  27,C  26,H  43)     60.55  0.000012   -0.12     60.43   
   255. D(C  26,C  27,C   5,H  29)     50.29  0.000010   -0.00     50.29   
   256. D(C  26,C  27,C   5,C   6)    -68.68  0.000010   -0.01    -68.69   
   257. D(C  26,C  27,C   5,C   3)    159.95 -0.000019    0.02    159.97   
   258. D(C   1,C  27,C   5,H  29)    -80.89 -0.000014    0.01    -80.87   
   259. D(C   1,C  27,C   5,C   6)    160.14 -0.000015    0.01    160.15   
   260. D(C   1,C  27,C   5,C   3)     28.78 -0.000043    0.03     28.81   
   261. D(H  45,C  27,C   1,O   0)    -87.94  0.000075   -0.13    -88.07   
   262. D(C   1,C  27,C  26,C  25)   -179.06 -0.000043   -0.06   -179.12   
   263. D(C  26,C  27,C   1,N   2)   -148.70  0.000001    0.01   -148.69   
   264. D(C  26,C  27,C   1,O   0)     34.30  0.000009   -0.10     34.21   
   265. D(C   5,C  27,C   1,N   2)    -23.67 -0.000011    0.02    -23.65   
   266. D(C   5,C  27,C  26,H  43)    -60.82  0.000054   -0.13    -60.95   
   267. D(C   5,C  27,C   1,O   0)    159.34 -0.000003   -0.09    159.25   
   268. D(C   5,C  27,C  26,H  44)   -179.49  0.000016   -0.07   -179.56   
    ----------------------------------------------------------------------------

Geometry step timings:
Preparation and reading OPT file:      0.000 s ( 0.177 %)
Internal coordinates            :      0.000 s ( 0.279 %)
B/P matrices and projection     :      0.008 s (49.737 %)
Hessian update/contruction      :      0.002 s (10.151 %)
Making the step                 :      0.005 s (29.403 %)
Converting the step to Cartesian:      0.000 s ( 3.160 %)
Storing new data                :      0.000 s ( 0.285 %)
Checking convergence            :      0.000 s ( 0.500 %)
Final printing                  :      0.001 s ( 6.307 %)
Total time                      :      0.016 s

Time for energy+gradient        :     74.316 s
Time for complete geometry iter :     74.546 s

         *************************************************************
         *                GEOMETRY OPTIMIZATION CYCLE  10            *
         *************************************************************
---------------------------------
CARTESIAN COORDINATES (ANGSTROEM)
---------------------------------
  O     -5.736452   -3.003088    0.694057
  C     -5.586618   -1.861238    0.346154
  N     -6.326161   -1.209814   -0.641726
  C     -5.871744    0.072976   -0.961922
  O     -6.432108    0.848061   -1.690597
  C     -4.532995    0.207635   -0.249706
  C     -4.043631    1.554834    0.242900
  C     -2.733097    1.364826    1.028835
  C     -1.478246    1.339612    0.158305
  O     -1.305366    1.925064   -0.878811
  N     -0.524104    0.543678    0.812098
  C      0.836076    0.420220    0.389697
  C      1.435309   -0.833713    0.319720
  C      2.755908   -0.945824   -0.087311
  C      3.508671    0.180247   -0.438228
  C      4.918845    0.053337   -0.875703
  C      5.882449    0.989093   -0.481495
  C      7.204207    0.869627   -0.891016
  C      7.592364   -0.187959   -1.706390
  C      6.646396   -1.125215   -2.107151
  C      5.325322   -1.006167   -1.695473
  C      2.884200    1.430143   -0.362186
  C      1.565917    1.554818    0.048405
  C     -1.064189   -0.123212    1.925640
  O     -0.442592   -0.805575    2.697399
  C     -2.567272    0.115929    1.930129
  C     -3.272173   -1.177052    1.423465
  C     -4.641395   -0.801022    0.896804
  H     -7.129520   -1.630127   -1.087988
  H     -3.805302   -0.184262   -0.975250
  H     -4.796899    2.006613    0.893209
  H     -3.867387    2.246280   -0.581308
  H     -2.594406    2.248047    1.662706
  H      0.880906   -1.716697    0.603577
  H      3.215430   -1.925497   -0.109487
  H      5.598983    1.803863    0.173057
  H      7.934227    1.600505   -0.565536
  H      8.622537   -0.280829   -2.026540
  H      6.935647   -1.948170   -2.749111
  H      4.594212   -1.729398   -2.034517
  H      3.429016    2.319625   -0.650967
  H      1.100712    2.529662    0.082464
  H     -2.889894    0.308892    2.953545
  H     -2.690478   -1.639803    0.620464
  H     -3.321965   -1.900655    2.236166
  H     -5.213343   -0.329191    1.709621

----------------------------
CARTESIAN COORDINATES (A.U.)
----------------------------
  NO LB      ZA    FRAG     MASS         X           Y           Z
   0 O     8.0000    0    15.999  -10.840323   -5.675013    1.311577
   1 C     6.0000    0    12.011  -10.557177   -3.517230    0.654136
   2 N     7.0000    0    14.007  -11.954712   -2.286217   -1.212686
   3 C     6.0000    0    12.011  -11.095988    0.137905   -1.817769
   4 O     8.0000    0    15.999  -12.154922    1.602603   -3.194766
   5 C     6.0000    0    12.011   -8.566118    0.392374   -0.471875
   6 C     6.0000    0    12.011   -7.641354    2.938210    0.459015
   7 C     6.0000    0    12.011   -5.164806    2.579148    1.944217
   8 C     6.0000    0    12.011   -2.793480    2.531500    0.299153
   9 O     8.0000    0    15.999   -2.466784    3.637843   -1.660712
  10 N     7.0000    0    14.007   -0.990413    1.027403    1.534644
  11 C     6.0000    0    12.011    1.579955    0.794101    0.736420
  12 C     6.0000    0    12.011    2.712342   -1.575489    0.604182
  13 C     6.0000    0    12.011    5.207912   -1.787348   -0.164994
  14 C     6.0000    0    12.011    6.630427    0.340617   -0.828131
  15 C     6.0000    0    12.011    9.295271    0.100792   -1.654839
  16 C     6.0000    0    12.011   11.116218    1.869115   -0.909893
  17 C     6.0000    0    12.011   13.613978    1.643358   -1.683776
  18 C     6.0000    0    12.011   14.347488   -0.355191   -3.224610
  19 C     6.0000    0    12.011   12.559868   -2.126348   -3.981939
  20 C     6.0000    0    12.011   10.063399   -1.901379   -3.203980
  21 C     6.0000    0    12.011    5.450349    2.702578   -0.684433
  22 C     6.0000    0    12.011    2.959155    2.938181    0.091473
  23 C     6.0000    0    12.011   -2.011026   -0.232838    3.638932
  24 O     8.0000    0    15.999   -0.836378   -1.522316    5.097345
  25 C     6.0000    0    12.011   -4.851440    0.219075    3.647415
  26 C     6.0000    0    12.011   -6.183510   -2.224306    2.689959
  27 C     6.0000    0    12.011   -8.770966   -1.513712    1.694714
  28 H     1.0000    0     1.008  -13.472840   -3.080493   -2.055998
  29 H     1.0000    0     1.008   -7.190979   -0.348204   -1.842956
  30 H     1.0000    0     1.008   -9.064826    3.791949    1.687921
  31 H     1.0000    0     1.008   -7.308301    4.244855   -1.098513
  32 H     1.0000    0     1.008   -4.902717    4.248194    3.142060
  33 H     1.0000    0     1.008    1.664671   -3.244087    1.140596
  34 H     1.0000    0     1.008    6.076282   -3.638662   -0.206900
  35 H     1.0000    0     1.008   10.580544    3.408806    0.327030
  36 H     1.0000    0     1.008   14.993517    3.024516   -1.068708
  37 H     1.0000    0     1.008   16.294234   -0.530690   -3.829606
  38 H     1.0000    0     1.008   13.106474   -3.681508   -5.195068
  39 H     1.0000    0     1.008    8.681803   -3.268088   -3.844679
  40 H     1.0000    0     1.008    6.479902    4.383456   -1.230150
  41 H     1.0000    0     1.008    2.080045    4.780368    0.155835
  42 H     1.0000    0     1.008   -5.461107    0.583722    5.581391
  43 H     1.0000    0     1.008   -5.084266   -3.098779    1.172506
  44 H     1.0000    0     1.008   -6.277604   -3.591717    4.225741
  45 H     1.0000    0     1.008   -9.851791   -0.622080    3.230716

--------------------------------
INTERNAL COORDINATES (ANGSTROEM)
--------------------------------
 O      0   0   0     0.000000000000     0.00000000     0.00000000
 C      1   0   0     1.203040659107     0.00000000     0.00000000
 N      2   1   0     1.395415474815   125.57781271     0.00000000
 C      3   2   1     1.398060030268   114.72225658   186.33489864
 O      4   3   2     1.202385512588   125.36551276   187.19882260
 C      4   3   2     1.522377953665   105.06066916     9.68922706
 C      6   4   3     1.515612698499   120.97173761   210.63883344
 C      7   6   4     1.539900653308   109.32914503   174.92595770
 C      8   7   6     1.527452498000   114.22524900    85.30293528
 O      9   8   7     1.203432601655   126.95197574    31.06044980
 N      9   8   7     1.404045275736   107.59334052   208.77705766
 C     11   9   8     1.429599520927   123.91331547   188.28087202
 C     12  11   9     1.391518912495   120.15890025   225.85499152
 C     13  12  11     1.386443262492   119.85533975   180.17309804
 C     14  13  12     1.399224321970   121.39848944   359.75246418
 C     15  14  13     1.481918407579   121.13499296   180.15237162
 C     16  15  14     1.399846884379   120.97458578   218.84705469
 C     17  16  15     1.388893078911   120.96794152   179.96595992
 C     18  17  16     1.390679585675   120.25910090     0.09995681
 C     19  18  17     1.390652297741   119.44870310   359.94510757
 C     20  19  18     1.388844378535   120.25485311   359.95385736
 C     15  14  13     1.399280768474   117.71953147     0.13882261
 C     22  15  14     1.386361839818   121.38515898     0.11543959
 C     11   9   8     1.405848240034   112.12786615     8.61463097
 O     24  11   9     1.203168089718   125.35404955   184.37253136
 C     24  11   9     1.521994331599   107.89046813     7.23471494
 C     26  24  11     1.557368053558   108.39642407   103.64881367
 C     27  26  24     1.514443827590   108.43413484   202.60175835
 H      3   2   1     1.010543440908   122.66920157     6.59375038
 H      6   4   3     1.099788533310   103.98700931    88.55646916
 H      7   6   4     1.092895453823   109.77323919    54.78655495
 H      7   6   4     1.090173703323   111.73090293   295.74474233
 H      8   7   6     1.095950524727   107.66507033   200.03065630
 H     13  12  11     1.080555031061   120.14601610   358.75829718
 H     14  13  12     1.082317281643   118.92189566   178.29061852
 H     17  16  15     1.082885351067   119.53709500     1.55645031
 H     18  17  16     1.083073796590   119.65612308   180.59045434
 H     19  18  17     1.082764509641   120.27453191   179.94366063
 H     20  19  18     1.083066908016   120.08283081   179.47144282
 H     21  20  19     1.082836558838   119.48344630   178.51912624
 H     22  15  14     1.082310933612   119.66640001   181.58761925
 H     23  22  15     1.080692145427   119.98588212   181.05842258
 H     26  24  11     1.090275124256   108.83289378   221.55004451
 H     27  26  24     1.094220600513   110.44090076   322.33347122
 H     27  26  24     1.089294731774   109.23707647    79.64666154
 H     28  27  26     1.100191303108   108.63718900   300.93876428

---------------------------
INTERNAL COORDINATES (A.U.)
---------------------------
 O      0   0   0     0.000000000000     0.00000000     0.00000000
 C      1   0   0     2.273417373685     0.00000000     0.00000000
 N      2   1   0     2.636953090437   125.57781271     0.00000000
 C      3   2   1     2.641950575988   114.72225658   186.33489864
 O      4   3   2     2.272179326185   125.36551276   187.19882260
 C      4   3   2     2.876877404746   105.06066916     9.68922706
 C      6   4   3     2.864092925256   120.97173761   210.63883344
 C      7   6   4     2.909990508199   109.32914503   174.92595770
 C      8   7   6     2.886466903795   114.22524900    85.30293528
 O      9   8   7     2.274158037760   126.95197574    31.06044980
 N      9   8   7     2.653261050768   107.59334052   208.77705766
 C     11   9   8     2.701551575737   123.91331547   188.28087202
 C     12  11   9     2.629589654787   120.15890025   225.85499152
 C     13  12  11     2.619998066330   119.85533975   180.17309804
 C     14  13  12     2.644150768445   121.39848944   359.75246418
 C     15  14  13     2.800419943141   121.13499296   180.15237162
 C     16  15  14     2.645327240899   120.97458578   218.84705469
 C     17  16  15     2.624627548440   120.96794152   179.96595992
 C     18  17  16     2.628003556960   120.25910090     0.09995681
 C     19  18  17     2.627951990238   119.44870310   359.94510757
 C     20  19  18     2.624535518067   120.25485311   359.95385736
 C     15  14  13     2.644257436879   117.71953147     0.13882261
 C     22  15  14     2.619844199775   121.38515898     0.11543959
 C     11   9   8     2.656668159520   112.12786615     8.61463097
 O     24  11   9     2.273658182641   125.35404955   184.37253136
 C     24  11   9     2.876152464103   107.89046813     7.23471494
 C     26  24  11     2.942999110943   108.39642407   103.64881367
 C     27  26  24     2.861884079352   108.43413484   202.60175835
 H      3   2   1     1.909650349746   122.66920157     6.59375038
 H      6   4   3     2.078299133183   103.98700931    88.55646916
 H      7   6   4     2.065273100734   109.77323919    54.78655495
 H      7   6   4     2.060129737683   111.73090293   295.74474233
 H      8   7   6     2.071046348062   107.66507033   200.03065630
 H     13  12  11     2.041953081337   120.14601610   358.75829718
 H     14  13  12     2.045283252315   118.92189566   178.29061852
 H     17  16  15     2.046356747951   119.53709500     1.55645031
 H     18  17  16     2.046712858381   119.65612308   180.59045434
 H     19  18  17     2.046128390751   120.27453191   179.94366063
 H     20  19  18     2.046699840864   120.08283081   179.47144282
 H     21  20  19     2.046264544002   119.48344630   178.51912624
 H     22  15  14     2.045271256275   119.66640001   181.58761925
 H     23  22  15     2.042212189936   119.98588212   181.05842258
 H     26  24  11     2.060321395471   108.83289378   221.55004451
 H     27  26  24     2.067777265064   110.44090076   322.33347122
 H     27  26  24     2.058468722177   109.23707647    79.64666154
 H     28  27  26     2.079060257796   108.63718900   300.93876428



           ************************************************************
           *        Program running with 16 parallel MPI-processes    *
           *              working on a common directory               *
           ************************************************************
------------------------------------------------------------------------------
                   ___                                                        
                  /   \      - P O W E R E D   B Y -                         
                 /     \                                                     
                 |  |  |   _    _      __       _____    __    __             
                 |  |  |  | |  | |    /  \     |  _  \  |  |  /  |          
                  \  \/   | |  | |   /    \    | | | |  |  | /  /          
                 / \  \   | |__| |  /  /\  \   | |_| |  |  |/  /          
                |  |  |   |  __  | /  /__\  \  |    /   |      \           
                |  |  |   | |  | | |   __   |  |    \   |  |\   \          
                \     /   | |  | | |  |  |  |  | |\  \  |  | \   \       
                 \___/    |_|  |_| |__|  |__|  |_| \__\ |__|  \__/        
                                                                              
                      - O R C A' S   B I G   F R I E N D -                    
                                      &                                       
                       - I N T E G R A L  F E E D E R -                       
                                                                              
 v1 FN, 2020, v2 2021, v3 2022-2024                                           
------------------------------------------------------------------------------


----------------------
SHARK INTEGRAL PACKAGE
----------------------

Number of atoms                             ...     46
Number of basis functions                   ...    976
Number of shells                            ...    380
Maximum angular momentum                    ...      3
Integral batch strategy                     ... SHARK/LIBINT Hybrid
RI-J (if used) integral strategy            ... SPLIT-RIJ (Revised 2003 algorithm where possible)
Printlevel                                  ...      1
Contraction scheme used                     ... SEGMENTED contraction
Prescreening option                         ... SCHWARTZ
   Thresh                                   ... 2.500e-11
   Tcut                                     ... 2.500e-12
   Tpresel                                  ... 2.500e-12 
Coulomb Range Separation                    ... NOT USED
Exchange Range Separation                   ... NOT USED
Multipole approximations                    ... NOT USED
Finite Nucleus Model                        ... NOT USED
CABS basis                                  ... NOT available
Auxiliary Coulomb fitting basis             ... AVAILABLE
   # of basis functions in Aux-J            ...   1570
   # of shells in Aux-J                     ...    510
   Maximum angular momentum in Aux-J        ...      4
Auxiliary J/K fitting basis                 ... NOT available
Auxiliary Correlation fitting basis         ... NOT available
Auxiliary 'external' fitting basis          ... NOT available

Checking pre-screening integrals            ... done (  0.0 sec) Dimension = 380
   => SHARK Basis and OBASIS are compatible. Storing Pre-screening
Shell pair information
Shell pair cut-off parameter TPreSel        ...   2.5e-12
Total number of shell pairs                 ...     72390
Shell pairs after pre-screening             ...     42402
Total number of primitive shell pairs       ...    224116
Primitive shell pairs kept                  ...     86619
          la=0 lb=0:  10619 shell pairs
          la=1 lb=0:  12290 shell pairs
          la=1 lb=1:   3567 shell pairs
          la=2 lb=0:   6010 shell pairs
          la=2 lb=1:   3516 shell pairs
          la=2 lb=2:    878 shell pairs
          la=3 lb=0:   2842 shell pairs
          la=3 lb=1:   1685 shell pairs
          la=3 lb=2:    798 shell pairs
          la=3 lb=3:    197 shell pairs

Checking whether 4 symmetric matrices of dimension 976 fit in memory
:Max Core in MB      =   4096.00
 MB in use           =     62.22
 MB left             =   4033.78
 MB needed           =     14.55
 Data fit in memory  = YES
Calculating RI/J V-Matrix + Cholesky decomp.... done (  0.1 sec)
Calculating Nuclear repulsion               ... done (  0.0 sec) ENN=   2403.834765511681 Eh

Diagonalization of the overlap matrix:
Smallest eigenvalue                        ... 6.580e-06
Time for diagonalization                   ...    0.150 sec
Threshold for overlap eigenvalues          ... 1.000e-07
Number of eigenvalues below threshold      ... 0
Time for construction of square roots      ...    0.066 sec
Total time needed                          ...    0.222 sec

-------------------
DFT GRID GENERATION
-------------------

General Integration Accuracy     IntAcc      ... 4.388
Radial Grid Type                 RadialGrid  ... OptM3 with GC (2021)
Angular Grid (max. ang.)         AngularGrid ... 4 (Lebedev-302)
Angular grid pruning method      GridPruning ... 4 (adaptive)
Weight generation scheme         WeightScheme... mBecke (2022)
Basis function cutoff            BFCut       ... 1.0000e-11
Integration weight cutoff        WCut        ... 1.0000e-14
Partially contracted basis set               ... off
Rotationally invariant grid construction     ... off
Angular grids for H and He will be reduced by one unit

Total number of grid points                  ...   224141
Total number of batches                      ...     3528
Average number of points per batch           ...       63
Average number of grid points per atom       ...     4873

--------------------
COSX GRID GENERATION
--------------------

GRIDX 1
-------
General Integration Accuracy     IntAcc      ... 3.816
Radial Grid Type                 RadialGrid  ... OptM3 with GC (2021)
Angular Grid (max. ang.)         AngularGrid ... 1 (Lebedev-50)
Angular grid pruning method      GridPruning ... 4 (adaptive)
Weight generation scheme         WeightScheme... mBecke (2022)
Basis function cutoff            BFCut       ... 1.0000e-11
Integration weight cutoff        WCut        ... 1.0000e-14
Partially contracted basis set               ... on
Rotationally invariant grid construction     ... off
Angular grids for H and He will be reduced by one unit

Total number of grid points                  ...    28409
Total number of batches                      ...      247
Average number of points per batch           ...      115
Average number of grid points per atom       ...      618
UseSFitting                                  ... on

GRIDX 2
-------
General Integration Accuracy     IntAcc      ... 4.020
Radial Grid Type                 RadialGrid  ... OptM3 with GC (2021)
Angular Grid (max. ang.)         AngularGrid ... 2 (Lebedev-110)
Angular grid pruning method      GridPruning ... 4 (adaptive)
Weight generation scheme         WeightScheme... mBecke (2022)
Basis function cutoff            BFCut       ... 1.0000e-11
Integration weight cutoff        WCut        ... 1.0000e-14
Partially contracted basis set               ... on
Rotationally invariant grid construction     ... off
Angular grids for H and He will be reduced by one unit

Total number of grid points                  ...    62278
Total number of batches                      ...      508
Average number of points per batch           ...      122
Average number of grid points per atom       ...     1354
UseSFitting                                  ... on

GRIDX 3
-------
General Integration Accuracy     IntAcc      ... 4.338
Radial Grid Type                 RadialGrid  ... OptM3 with GC (2021)
Angular Grid (max. ang.)         AngularGrid ... 3 (Lebedev-194)
Angular grid pruning method      GridPruning ... 4 (adaptive)
Weight generation scheme         WeightScheme... mBecke (2022)
Basis function cutoff            BFCut       ... 1.0000e-11
Integration weight cutoff        WCut        ... 1.0000e-14
Partially contracted basis set               ... on
Rotationally invariant grid construction     ... off
Angular grids for H and He will be reduced by one unit

Total number of grid points                  ...   136311
Total number of batches                      ...     1087
Average number of points per batch           ...      125
Average number of grid points per atom       ...     2963
UseSFitting                                  ... on
Grids setup in   1.9 sec
Initializing property integral containers    ... done (  0.0 sec)

SHARK setup successfully completed in   2.6 seconds

Maximum memory used throughout the entire STARTUP-calculation: 104.1 MB


           ************************************************************
           *        Program running with 16 parallel MPI-processes    *
           *              working on a common directory               *
           ************************************************************
Occupation numbers will be reassigned to an Aufbau configuration
             **** ENERGY FILE WAS UPDATED (conjugate_row2_A2_H4.en.tmp) ****
Finished Guess after   0.8 sec
Maximum memory used throughout the entire GUESS-calculation: 99.0 MB


           ************************************************************
           *        Program running with 16 parallel MPI-processes    *
           *              working on a common directory               *
           ************************************************************
----------------------------------------D-I-I-S--------------------------------------------
Iteration    Energy (Eh)           Delta-E    RMSDP     MaxDP     DIISErr   Damp  Time(sec)
-------------------------------------------------------------------------------------------
               ***  Starting incremental Fock matrix formation  ***
    1    -1259.4064133902238609     0.00e+00  9.05e-05  1.49e-03  5.69e-03  0.700   6.8
    2    -1259.4065018023197808    -8.84e-05  7.85e-05  1.28e-03  4.51e-03  0.700   2.9
                               ***Turning on AO-DIIS***
    3    -1259.4065727491752114    -7.09e-05  6.03e-05  9.56e-04  3.40e-03  0.700   2.6
                              *** Initializing SOSCF ***
---------------------------------------S-O-S-C-F--------------------------------------
Iteration    Energy (Eh)           Delta-E    RMSDP     MaxDP     MaxGrad    Time(sec)
--------------------------------------------------------------------------------------
    4    -1259.4066256128107852    -5.29e-05  1.49e-04  2.29e-03  2.47e-03     2.9
               *** Restarting incremental Fock matrix formation ***
    5    -1259.4067589879318803    -1.33e-04  3.37e-05  3.67e-04  8.98e-05     6.7
    6    -1259.4067594243588246    -4.36e-07  1.58e-05  6.88e-04  4.76e-05     3.8
    7    -1259.4067593020781715     1.22e-07  1.28e-05  5.08e-04  9.33e-05     3.4
    8    -1259.4067594800380903    -1.78e-07  3.58e-06  8.67e-05  2.08e-06     3.3
                  *** Gradient check signals convergence ***

               *****************************************************
               *                     SUCCESS                       *
               *           SCF CONVERGED AFTER   8 CYCLES          *
               *****************************************************

Recomputing exchange energy using gridx3       ... done (   10.929 sec)
Old exchange energy                            :    -33.371877252 Eh
New exchange energy                            :    -33.371871636 Eh
Exchange energy change after final integration :      0.000005616 Eh
Total energy after final integration           :  -1259.406753863 Eh
             **** ENERGY FILE WAS UPDATED (conjugate_row2_A2_H4.en.tmp) ****

----------------
TOTAL SCF ENERGY
----------------

Total Energy       :      -1259.40675386250268 Eh          -34270.20004 eV

Components:
Nuclear Repulsion  :       2403.83476551168087 Eh           65411.66943 eV
Electronic Energy  :      -3663.24152499006186 Eh          -99681.86962 eV
One Electron Energy:      -6489.18209463912990 Eh         -176579.62193 eV
Two Electron Energy:       2825.94056964906804 Eh           76897.75231 eV

Virial components:
Potential Energy   :      -2513.39240439826244 Eh          -68392.88435 eV
Kinetic Energy     :       1253.98565053575999 Eh           34122.68431 eV
Virial Ratio       :          2.00432309837391

DFT components:
N(Alpha)           :       97.999966954588 electrons
N(Beta)            :       97.999966954588 electrons
N(Total)           :      195.999933909175 electrons
E(X)               :     -132.674520482008 Eh       
E(C)               :       -7.941437379632 Eh       
E(XC)              :     -140.615957861640 Eh       

---------------
SCF CONVERGENCE
---------------

  Last Energy change         ...    1.7796e-07  Tolerance :   1.0000e-08
  Last MAX-Density change    ...    8.6696e-05  Tolerance :   1.0000e-07
  Last RMS-Density change    ...    3.5768e-06  Tolerance :   5.0000e-09
  Last DIIS Error            ...    2.4718e-03  Tolerance :   5.0000e-07
  Last Orbital Gradient      ...    2.0844e-06  Tolerance :   1.0000e-05
  Last Orbital Rotation      ...    1.1352e-05  Tolerance :   1.0000e-05


Total SCF time: 0 days 0 hours 0 min 46 sec 
Finished LeanSCF after  46.4 sec

Maximum memory used throughout the entire LEANSCF-calculation: 138.8 MB

-------------------------   --------------------
FINAL SINGLE POINT ENERGY     -1259.406753862503
-------------------------   --------------------



           ************************************************************
           *        Program running with 16 parallel MPI-processes    *
           *              working on a common directory               *
           ************************************************************
------------------------------------------------------------------------------
                         ORCA SCF GRADIENT CALCULATION
------------------------------------------------------------------------------

Nuc. rep. gradient        (SHARK) ... done (  0.0 sec)
HCore & Overlap gradient  (SHARK) ... done (  0.3 sec)
Split-RIJ-J gradient      (SHARK) ... done (  1.8 sec)
COSX-gradient                     ... done ( 18.5 sec)
XC gradient                       ... done (  2.4 sec)

------------------
CARTESIAN GRADIENT
------------------

   1   O   :    0.000057368    0.000072182   -0.000022554
   2   C   :   -0.000153649   -0.000142688    0.000074086
   3   N   :   -0.000005770   -0.000023584   -0.000027390
   4   C   :   -0.000138097    0.000077786   -0.000038875
   5   O   :    0.000068924   -0.000031144    0.000033305
   6   C   :    0.000054102   -0.000000737   -0.000034467
   7   C   :    0.000041137    0.000087644    0.000009551
   8   C   :   -0.000113941    0.000014459   -0.000047457
   9   C   :    0.000120000    0.000082300   -0.000103348
  10   O   :   -0.000005738   -0.000061160    0.000063443
  11   N   :   -0.000050309    0.000058288    0.000001340
  12   C   :    0.000058097   -0.000002045   -0.000037159
  13   C   :    0.000091947    0.000024132   -0.000029812
  14   C   :   -0.000064150    0.000015828   -0.000001739
  15   C   :    0.000020925   -0.000000396   -0.000017351
  16   C   :   -0.000043755    0.000028050    0.000031211
  17   C   :   -0.000012376   -0.000092228   -0.000071823
  18   C   :   -0.000044866    0.000039930    0.000042641
  19   C   :    0.000041641   -0.000008987   -0.000014297
  20   C   :   -0.000065559   -0.000027648   -0.000007667
  21   C   :    0.000053321    0.000071535    0.000046005
  22   C   :   -0.000031804   -0.000028027    0.000033082
  23   C   :    0.000066050   -0.000043006   -0.000016280
  24   C   :    0.000054664   -0.000268623    0.000029197
  25   O   :   -0.000022113    0.000125507   -0.000050343
  26   C   :   -0.000055254    0.000015167    0.000173357
  27   C   :    0.000063096   -0.000066846    0.000010342
  28   C   :    0.000040828    0.000023734    0.000001408
  29   H   :    0.000009123    0.000000524   -0.000023131
  30   H   :    0.000015560    0.000016385    0.000020681
  31   H   :    0.000010093    0.000006282    0.000000469
  32   H   :   -0.000012475    0.000006826    0.000015946
  33   H   :   -0.000036345    0.000015642   -0.000029811
  34   H   :    0.000008173   -0.000014731    0.000004020
  35   H   :   -0.000039780   -0.000013413    0.000016863
  36   H   :    0.000042294    0.000018910    0.000004085
  37   H   :   -0.000006101   -0.000000553    0.000004076
  38   H   :   -0.000002538    0.000002873    0.000000699
  39   H   :   -0.000005065    0.000003564    0.000000574
  40   H   :    0.000020194   -0.000015320   -0.000019225
  41   H   :   -0.000041060    0.000027672    0.000010488
  42   H   :    0.000009630    0.000006087   -0.000004920
  43   H   :   -0.000036558   -0.000009383   -0.000024537
  44   H   :   -0.000002093    0.000015026    0.000000913
  45   H   :    0.000015601    0.000005879   -0.000002268
  46   H   :    0.000026626   -0.000011691   -0.000003326

Difference to translation invariance:
           :    0.0000000000   -0.0000000000   -0.0000000000

Difference to rotation invariance:
           :    0.0001682568   -0.0000971327    0.0000484141

Norm of the Cartesian gradient     ...    0.0006264382
RMS gradient                       ...    0.0000533260
MAX gradient                       ...    0.0002686229

-------
TIMINGS
-------

Total SCF gradient time     ....       23.041 sec

Densities                   ....       0.007 sec  (  0.0%)
One electron gradient       ....       0.324 sec  (  1.4%)
RI-J Coulomb gradient       ....       1.783 sec  (  7.7%)
COSX gradient               ....      18.525 sec  ( 80.4%)
XC gradient                 ....       2.400 sec  ( 10.4%)

Maximum memory used throughout the entire SCFGRAD-calculation: 163.8 MB
------------------------------------------------------------------------------
                         ORCA GEOMETRY RELAXATION STEP
------------------------------------------------------------------------------

Reading the OPT-File                    .... done
Getting information on internals        .... done
Copying old internal coords+grads       .... done
Making the new internal coordinates     .... (2022 redundants) done
Validating the new internal coordinates .... (2022 redundants) done
Calculating the B-matrix                .... done
Calculating the G,G- and P matrices     .... done
Transforming gradient to internals      .... done
Projecting the internal gradient        .... done
Number of atoms                         ....  46
Number of internal coordinates          .... 268
Current Energy                          .... -1259.406753863 Eh
Current gradient norm                   ....     0.000626438 Eh/bohr
Maximum allowed component of the step   ....  0.300
Current trust radius                    ....  0.467
Updating the Hessian (BFGS)             .... done
Forming the augmented Hessian           .... done
Diagonalizing the augmented Hessian     .... done
Last element of RFO vector              ....  0.999988812
Lowest eigenvalues of augmented Hessian:
 -0.000000824  0.004890476  0.008333984  0.015138742  0.015901734
Length of the computed step             ....  0.004730355
The final length of the internal step   ....  0.004730355
Converting the step to Cartesian space:
 Initial RMS(Int)=    0.0002889524
Transforming coordinates:
 Iter   0:  RMS(Cart)=    0.0009980745 RMS(Int)=    0.0002887303
done
Storing new coordinates                 .... done
The predicted energy change is          ....    -0.000000412
Previously predicted energy change      ....    -0.000003240
Actually observed energy change         ....    -0.000003934
Ratio of predicted to observed change   ....     1.214211291
New trust radius                        ....     0.700000000

                                .--------------------.
          ----------------------|Geometry convergence|-------------------------
          Item                value                   Tolerance       Converged
          ---------------------------------------------------------------------
          Energy change      -0.0000039344            0.0000050000      YES
          RMS gradient        0.0000273463            0.0001000000      YES
          MAX gradient        0.0001153484            0.0003000000      YES
          RMS step            0.0002889524            0.0020000000      YES
          MAX step            0.0012426648            0.0040000000      YES
          -------------------------------------------------------------------------
          ........................................................
          Max(Bonds)      0.0001      Max(Angles)    0.02
          Max(Dihed)        0.07      Max(Improp)    0.00
          ---------------------------------------------------------------------

                    ***********************HURRAY********************
                    ***        THE OPTIMIZATION HAS CONVERGED     ***
                    *************************************************


    ---------------------------------------------------------------------------
                         Redundant Internal Coordinates

                          --- Optimized Parameters ---  
                            (Angstroem and degrees)

        Definition                    OldVal   dE/dq     Step     FinalVal
    ----------------------------------------------------------------------------
     1. B(C   1,O   0)                1.2030 -0.000082  0.0000    1.2031   
     2. B(N   2,C   1)                1.3954  0.000052 -0.0000    1.3954   
     3. B(C   3,N   2)                1.3981  0.000050  0.0000    1.3981   
     4. B(O   4,C   3)                1.2024 -0.000073  0.0000    1.2024   
     5. B(C   5,C   3)                1.5224  0.000058 -0.0000    1.5223   
     6. B(C   6,C   5)                1.5156  0.000042 -0.0000    1.5156   
     7. B(C   7,C   6)                1.5399 -0.000052  0.0001    1.5400   
     8. B(C   8,C   7)                1.5275  0.000104 -0.0001    1.5273   
     9. B(O   9,C   8)                1.2034 -0.000085  0.0000    1.2035   
    10. B(N  10,C   8)                1.4040 -0.000005  0.0000    1.4041   
    11. B(C  11,N  10)                1.4296  0.000062 -0.0001    1.4295   
    12. B(C  12,C  11)                1.3915 -0.000020  0.0000    1.3915   
    13. B(C  13,C  12)                1.3864 -0.000099  0.0001    1.3865   
    14. B(C  14,C  13)                1.3992  0.000012 -0.0000    1.3992   
    15. B(C  15,C  14)                1.4819 -0.000028  0.0001    1.4820   
    16. B(C  16,C  15)                1.3998 -0.000038  0.0000    1.3999   
    17. B(C  17,C  16)                1.3889 -0.000042  0.0000    1.3889   
    18. B(C  18,C  17)                1.3907  0.000017 -0.0000    1.3907   
    19. B(C  19,C  18)                1.3907  0.000011 -0.0000    1.3906   
    20. B(C  20,C  19)                1.3888 -0.000045  0.0000    1.3889   
    21. B(C  20,C  15)                1.3999 -0.000026  0.0000    1.3999   
    22. B(C  21,C  14)                1.3993 -0.000007 -0.0000    1.3993   
    23. B(C  22,C  21)                1.3864 -0.000089  0.0001    1.3864   
    24. B(C  22,C  11)                1.3916 -0.000034  0.0000    1.3916   
    25. B(C  23,N  10)                1.4058  0.000060 -0.0000    1.4058   
    26. B(O  24,C  23)                1.2032 -0.000115  0.0001    1.2032   
    27. B(C  25,C  23)                1.5220  0.000068 -0.0001    1.5219   
    28. B(C  25,C   7)                1.5491  0.000114 -0.0001    1.5489   
    29. B(C  26,C  25)                1.5574 -0.000006 -0.0000    1.5573   
    30. B(C  27,C   5)                1.5309  0.000063 -0.0001    1.5308   
    31. B(C  27,C   1)                1.5234  0.000086 -0.0001    1.5233   
    32. B(C  27,C  26)                1.5144  0.000046 -0.0000    1.5144   
    33. B(H  28,N   2)                1.0105  0.000003 -0.0000    1.0105   
    34. B(H  29,C   5)                1.0998 -0.000009  0.0000    1.0998   
    35. B(H  30,C   6)                1.0929 -0.000004  0.0000    1.0929   
    36. B(H  31,C   6)                1.0902 -0.000009  0.0000    1.0902   
    37. B(H  32,C   7)                1.0960 -0.000009  0.0000    1.0960   
    38. B(H  33,C  12)                1.0806  0.000009 -0.0000    1.0805   
    39. B(H  34,C  13)                1.0823 -0.000005  0.0000    1.0823   
    40. B(H  35,C  16)                1.0829  0.000005 -0.0000    1.0829   
    41. B(H  36,C  17)                1.0831 -0.000004  0.0000    1.0831   
    42. B(H  37,C  18)                1.0828 -0.000003  0.0000    1.0828   
    43. B(H  38,C  19)                1.0831 -0.000004  0.0000    1.0831   
    44. B(H  39,C  20)                1.0828  0.000003 -0.0000    1.0828   
    45. B(H  40,C  21)                1.0823 -0.000001  0.0000    1.0823   
    46. B(H  41,C  22)                1.0807  0.000001 -0.0000    1.0807   
    47. B(H  42,C  25)                1.0903 -0.000014  0.0000    1.0903   
    48. B(H  43,C  26)                1.0942 -0.000009  0.0000    1.0942   
    49. B(H  44,C  26)                1.0893 -0.000006  0.0000    1.0893   
    50. B(H  45,C  27)                1.1002 -0.000021  0.0000    1.1002   
    51. A(O   0,C   1,N   2)          125.58  0.000044   -0.01    125.57   
    52. A(O   0,C   1,C  27)          129.29 -0.000036    0.01    129.30   
    53. A(N   2,C   1,C  27)          105.06 -0.000007   -0.01    105.06   
    54. A(C   1,N   2,H  28)          122.67  0.000009   -0.00    122.67   
    55. A(C   1,N   2,C   3)          114.72  0.000003   -0.00    114.72   
    56. A(C   3,N   2,H  28)          122.61 -0.000012    0.00    122.61   
    57. A(N   2,C   3,C   5)          105.06  0.000010   -0.00    105.06   
    58. A(O   4,C   3,C   5)          129.52 -0.000045    0.01    129.53   
    59. A(N   2,C   3,O   4)          125.37  0.000033   -0.00    125.36   
    60. A(C   3,C   5,C  27)          103.29 -0.000007    0.00    103.29   
    61. A(C   3,C   5,H  29)          103.99  0.000014   -0.00    103.99   
    62. A(C   6,C   5,H  29)          108.51 -0.000015    0.01    108.52   
    63. A(C  27,C   5,H  29)          107.83 -0.000005   -0.00    107.82   
    64. A(C   3,C   5,C   6)          120.97 -0.000015   -0.00    120.97   
    65. A(C   6,C   5,C  27)          111.41  0.000027   -0.00    111.41   
    66. A(C   5,C   6,H  30)          109.77  0.000018   -0.00    109.77   
    67. A(C   5,C   6,C   7)          109.33 -0.000034    0.01    109.34   
    68. A(C   7,C   6,H  31)          109.06  0.000016   -0.00    109.06   
    69. A(C   5,C   6,H  31)          111.73  0.000013   -0.00    111.73   
    70. A(H  30,C   6,H  31)          107.40 -0.000012    0.00    107.40   
    71. A(C   7,C   6,H  30)          109.51  0.000001    0.00    109.51   
    72. A(C   8,C   7,H  32)          103.83  0.000001    0.00    103.83   
    73. A(C   6,C   7,H  32)          107.67 -0.000047    0.02    107.68   
    74. A(C   6,C   7,C   8)          114.23  0.000016   -0.01    114.22   
    75. A(C   8,C   7,C  25)          103.32 -0.000025    0.00    103.32   
    76. A(C   6,C   7,C  25)          119.18  0.000025   -0.00    119.18   
    77. A(C  25,C   7,H  32)          107.44  0.000029   -0.01    107.43   
    78. A(O   9,C   8,N  10)          125.41 -0.000019    0.00    125.41   
    79. A(C   7,C   8,O   9)          126.95  0.000011    0.00    126.95   
    80. A(C   7,C   8,N  10)          107.59  0.000009   -0.00    107.59   
    81. A(C   8,N  10,C  23)          112.13  0.000033   -0.00    112.12   
    82. A(C   8,N  10,C  11)          123.91 -0.000031    0.00    123.92   
    83. A(C  11,N  10,C  23)          123.96 -0.000002    0.00    123.96   
    84. A(C  12,C  11,C  22)          119.77 -0.000016    0.01    119.78   
    85. A(N  10,C  11,C  22)          120.07  0.000002   -0.00    120.07   
    86. A(N  10,C  11,C  12)          120.16  0.000015   -0.00    120.16   
    87. A(C  13,C  12,H  33)          119.98 -0.000021    0.00    119.99   
    88. A(C  11,C  12,H  33)          120.15  0.000007    0.00    120.15   
    89. A(C  11,C  12,C  13)          119.86  0.000014   -0.00    119.85   
    90. A(C  12,C  13,C  14)          121.40  0.000004   -0.00    121.40   
    91. A(C  14,C  13,H  34)          119.66  0.000044   -0.01    119.66   
    92. A(C  12,C  13,H  34)          118.92 -0.000048    0.01    118.93   
    93. A(C  15,C  14,C  21)          121.15  0.000012   -0.00    121.14   
    94. A(C  13,C  14,C  21)          117.72 -0.000023    0.01    117.73   
    95. A(C  13,C  14,C  15)          121.13  0.000011   -0.00    121.13   
    96. A(C  16,C  15,C  20)          118.10 -0.000045    0.01    118.11   
    97. A(C  14,C  15,C  20)          120.93  0.000000   -0.00    120.93   
    98. A(C  14,C  15,C  16)          120.97  0.000045   -0.01    120.97   
    99. A(C  15,C  16,C  17)          120.97  0.000038   -0.01    120.96   
   100. A(C  17,C  16,H  35)          119.48 -0.000066    0.01    119.49   
   101. A(C  15,C  16,H  35)          119.54  0.000028   -0.00    119.53   
   102. A(C  16,C  17,C  18)          120.26  0.000001   -0.00    120.26   
   103. A(C  18,C  17,H  36)          120.08  0.000005   -0.00    120.08   
   104. A(C  16,C  17,H  36)          119.66 -0.000006    0.00    119.66   
   105. A(C  17,C  18,C  19)          119.45 -0.000033    0.00    119.45   
   106. A(C  19,C  18,H  37)          120.28  0.000018   -0.00    120.27   
   107. A(C  17,C  18,H  37)          120.27  0.000015   -0.00    120.27   
   108. A(C  18,C  19,C  20)          120.25 -0.000005    0.00    120.26   
   109. A(C  20,C  19,H  38)          119.66 -0.000002   -0.00    119.66   
   110. A(C  18,C  19,H  38)          120.08  0.000007   -0.00    120.08   
   111. A(C  15,C  20,C  19)          120.97  0.000044   -0.01    120.97   
   112. A(C  19,C  20,H  39)          119.48 -0.000054    0.01    119.49   
   113. A(C  15,C  20,H  39)          119.52  0.000010   -0.00    119.52   
   114. A(C  14,C  21,C  22)          121.39  0.000003   -0.00    121.38   
   115. A(C  22,C  21,H  40)          118.93 -0.000053    0.01    118.94   
   116. A(C  14,C  21,H  40)          119.67  0.000050   -0.01    119.66   
   117. A(C  11,C  22,C  21)          119.87  0.000018   -0.00    119.87   
   118. A(C  21,C  22,H  41)          119.99 -0.000022    0.00    119.99   
   119. A(C  11,C  22,H  41)          120.13  0.000004    0.00    120.13   
   120. A(O  24,C  23,C  25)          126.69  0.000044   -0.01    126.68   
   121. A(N  10,C  23,C  25)          107.89 -0.000014    0.00    107.89   
   122. A(N  10,C  23,O  24)          125.35 -0.000028    0.00    125.36   
   123. A(C  26,C  25,H  42)          108.57 -0.000020    0.00    108.57   
   124. A(C  23,C  25,H  42)          108.83  0.000049   -0.02    108.81   
   125. A(C   7,C  25,H  42)          111.83  0.000007   -0.01    111.82   
   126. A(C  23,C  25,C  26)          108.40 -0.000044    0.01    108.41   
   127. A(C   7,C  25,C  26)          115.57  0.000004    0.01    115.58   
   128. A(C   7,C  25,C  23)          103.34  0.000009    0.00    103.34   
   129. A(C  25,C  26,C  27)          108.43 -0.000029    0.01    108.45   
   130. A(C  27,C  26,H  44)          112.52  0.000027   -0.01    112.52   
   131. A(C  25,C  26,H  44)          109.24 -0.000003   -0.00    109.24   
   132. A(C  27,C  26,H  43)          109.29  0.000013   -0.00    109.29   
   133. A(C  25,C  26,H  43)          110.44  0.000001    0.00    110.44   
   134. A(H  43,C  26,H  44)          106.91 -0.000008   -0.01    106.90   
   135. A(C   5,C  27,C  26)          111.10  0.000003    0.00    111.10   
   136. A(C   1,C  27,C  26)          120.92  0.000004   -0.01    120.92   
   137. A(C  26,C  27,H  45)          108.64 -0.000030    0.01    108.65   
   138. A(C   1,C  27,C   5)          103.40  0.000006   -0.00    103.40   
   139. A(C   5,C  27,H  45)          107.91  0.000009   -0.01    107.90   
   140. A(C   1,C  27,H  45)          104.06  0.000011    0.01    104.07   
   141. D(C   3,N   2,C   1,C  27)      9.09 -0.000025    0.05      9.13   
   142. D(H  28,N   2,C   1,C  27)   -170.65 -0.000026    0.05   -170.60   
   143. D(C   3,N   2,C   1,O   0)   -173.67  0.000007   -0.02   -173.68   
   144. D(H  28,N   2,C   1,O   0)      6.59  0.000005   -0.01      6.58   
   145. D(C   5,C   3,N   2,C   1)      9.69  0.000017   -0.03      9.65   
   146. D(O   4,C   3,N   2,H  28)      6.94 -0.000006    0.01      6.95   
   147. D(C   5,C   3,N   2,H  28)   -170.57  0.000019   -0.04   -170.61   
   148. D(O   4,C   3,N   2,C   1)   -172.80 -0.000008    0.02   -172.78   
   149. D(C  27,C   5,C   3,O   4)    158.67  0.000021   -0.05    158.62   
   150. D(C   6,C   5,C   3,O   4)     33.27  0.000001   -0.04     33.23   
   151. D(C  27,C   5,C   3,N   2)    -23.96 -0.000003    0.01    -23.95   
   152. D(H  29,C   5,C   3,N   2)     88.56 -0.000005    0.00     88.56   
   153. D(C   6,C   5,C   3,N   2)   -149.36 -0.000023    0.01   -149.35   
   154. D(C   7,C   6,C   5,C  27)     53.37 -0.000006    0.00     53.37   
   155. D(C   7,C   6,C   5,H  29)    -65.19 -0.000007    0.00    -65.19   
   156. D(C   7,C   6,C   5,C   3)    174.93 -0.000003   -0.00    174.92   
   157. D(H  30,C   6,C   5,H  29)    174.67  0.000002   -0.00    174.67   
   158. D(H  30,C   6,C   5,C   3)     54.79  0.000007   -0.01     54.78   
   159. D(H  30,C   6,C   5,C  27)    -66.77  0.000003   -0.00    -66.77   
   160. D(C  25,C   7,C   6,H  30)     82.89 -0.000002    0.01     82.90   
   161. D(C  25,C   7,C   6,C   5)    -37.42 -0.000003    0.01    -37.41   
   162. D(C   8,C   7,C   6,H  31)    -37.13 -0.000005    0.00    -37.12   
   163. D(C   8,C   7,C   6,C   5)     85.30 -0.000001    0.00     85.31   
   164. D(C  25,C   7,C   6,H  31)   -159.85 -0.000007    0.01   -159.84   
   165. D(C   8,C   7,C   6,H  30)   -154.39  0.000001    0.00   -154.39   
   166. D(N  10,C   8,C   7,C  25)    -20.23  0.000022   -0.01    -20.25   
   167. D(O   9,C   8,C   7,H  32)    -85.90  0.000024    0.03    -85.88   
   168. D(O   9,C   8,C   7,C   6)     31.06 -0.000024    0.04     31.10   
   169. D(O   9,C   8,C   7,C  25)    162.05  0.000000    0.04    162.08   
   170. D(N  10,C   8,C   7,C   6)   -151.22 -0.000002   -0.00   -151.23   
   171. D(C  11,N  10,C   8,C   7)   -171.72 -0.000006    0.02   -171.70   
   172. D(C  23,N  10,C   8,O   9)   -173.62  0.000020   -0.04   -173.66   
   173. D(C  23,N  10,C   8,C   7)      8.61 -0.000002    0.02      8.63   
   174. D(C  11,N  10,C   8,O   9)      6.04  0.000016   -0.03      6.01   
   175. D(C  22,C  11,N  10,C  23)   -134.45  0.000001   -0.00   -134.45   
   176. D(C  22,C  11,N  10,C   8)     45.93  0.000006   -0.01     45.92   
   177. D(C  12,C  11,N  10,C  23)     45.48  0.000001   -0.00     45.48   
   178. D(C  12,C  11,N  10,C   8)   -134.15  0.000006   -0.01   -134.15   
   179. D(H  33,C  12,C  11,C  22)    178.69 -0.000003    0.00    178.69   
   180. D(H  33,C  12,C  11,N  10)     -1.24 -0.000003    0.00     -1.24   
   181. D(C  13,C  12,C  11,C  22)      0.10 -0.000004    0.01      0.11   
   182. D(C  13,C  12,C  11,N  10)   -179.83 -0.000004    0.01   -179.82   
   183. D(H  34,C  13,C  12,H  33)     -0.30 -0.000000    0.01     -0.29   
   184. D(C  14,C  13,C  12,H  33)   -178.84  0.000004   -0.00   -178.84   
   185. D(C  14,C  13,C  12,C  11)     -0.25  0.000005   -0.01     -0.26   
   186. D(H  34,C  13,C  12,C  11)    178.29  0.000001    0.00    178.29   
   187. D(C  21,C  14,C  13,H  34)   -178.39  0.000004   -0.01   -178.40   
   188. D(C  21,C  14,C  13,C  12)      0.14 -0.000001   -0.00      0.14   
   189. D(C  15,C  14,C  13,H  34)      1.62  0.000004   -0.01      1.61   
   190. D(C  15,C  14,C  13,C  12)   -179.85 -0.000001   -0.00   -179.85   
   191. D(C  20,C  15,C  14,C  21)   -141.13 -0.000003    0.05   -141.08   
   192. D(C  20,C  15,C  14,C  13)     38.86 -0.000003    0.05     38.91   
   193. D(C  16,C  15,C  14,C  21)     38.86 -0.000004    0.05     38.91   
   194. D(C  16,C  15,C  14,C  13)   -141.15 -0.000004    0.05   -141.10   
   195. D(H  35,C  16,C  15,C  20)   -178.45  0.000001   -0.00   -178.45   
   196. D(H  35,C  16,C  15,C  14)      1.56  0.000001   -0.01      1.55   
   197. D(C  17,C  16,C  15,C  20)     -0.04 -0.000002    0.00     -0.04   
   198. D(C  17,C  16,C  15,C  14)    179.97 -0.000001   -0.00    179.97   
   199. D(C  18,C  17,C  16,C  15)      0.10  0.000002   -0.00      0.10   
   200. D(C  18,C  17,C  16,H  35)    178.51  0.000002    0.00    178.51   
   201. D(H  36,C  17,C  16,H  35)     -1.00  0.000001    0.00     -1.00   
   202. D(H  36,C  17,C  16,C  15)   -179.41  0.000001   -0.00   -179.41   
   203. D(C  19,C  18,C  17,C  16)     -0.05 -0.000001    0.00     -0.05   
   204. D(H  37,C  18,C  17,H  36)     -0.55 -0.000001    0.00     -0.55   
   205. D(H  37,C  18,C  17,C  16)    179.94 -0.000002    0.00    179.95   
   206. D(C  19,C  18,C  17,H  36)    179.45  0.000000   -0.00    179.45   
   207. D(H  38,C  19,C  18,H  37)     -0.53  0.000000   -0.00     -0.53   
   208. D(H  38,C  19,C  18,C  17)    179.47 -0.000001    0.00    179.47   
   209. D(C  20,C  19,C  18,H  37)    179.96 -0.000000   -0.00    179.96   
   210. D(C  20,C  19,C  18,C  17)     -0.05 -0.000001    0.00     -0.04   
   211. D(H  39,C  20,C  19,H  38)     -1.00 -0.000000    0.00     -1.00   
   212. D(H  39,C  20,C  19,C  18)    178.52  0.000001    0.00    178.52   
   213. D(C  15,C  20,C  19,H  38)   -179.42  0.000001   -0.00   -179.42   
   214. D(C  15,C  20,C  19,C  18)      0.10  0.000002   -0.00      0.10   
   215. D(H  39,C  20,C  15,C  16)   -178.47  0.000002   -0.01   -178.48   
   216. D(H  39,C  20,C  15,C  14)      1.52  0.000001   -0.00      1.52   
   217. D(C  19,C  20,C  15,C  16)     -0.06 -0.000001    0.00     -0.06   
   218. D(C  19,C  20,C  15,C  14)    179.93 -0.000001    0.00    179.94   
   219. D(H  40,C  21,C  14,C  15)      1.57  0.000001   -0.00      1.57   
   220. D(H  40,C  21,C  14,C  13)   -178.41  0.000002   -0.00   -178.42   
   221. D(C  22,C  21,C  14,C  15)   -179.90 -0.000004    0.01   -179.89   
   222. D(C  22,C  21,C  14,C  13)      0.12 -0.000004    0.01      0.13   
   223. D(H  41,C  22,C  21,H  40)     -0.40 -0.000000    0.01     -0.39   
   224. D(H  41,C  22,C  21,C  14)   -178.94  0.000004   -0.00   -178.95   
   225. D(C  11,C  22,C  21,H  40)    178.28  0.000001    0.00    178.28   
   226. D(C  11,C  22,C  21,C  14)     -0.26  0.000005   -0.01     -0.27   
   227. D(H  41,C  22,C  11,C  12)    178.83  0.000000   -0.01    178.82   
   228. D(H  41,C  22,C  11,N  10)     -1.24 -0.000000   -0.01     -1.25   
   229. D(C  21,C  22,C  11,C  12)      0.15 -0.000000   -0.00      0.15   
   230. D(C  21,C  22,C  11,N  10)   -179.92 -0.000001   -0.00   -179.92   
   231. D(C  25,C  23,N  10,C  11)   -172.43 -0.000008   -0.02   -172.45   
   232. D(C  25,C  23,N  10,C   8)      7.23 -0.000013   -0.02      7.22   
   233. D(O  24,C  23,N  10,C  11)      4.71  0.000038   -0.07      4.64   
   234. D(O  24,C  23,N  10,C   8)   -175.63  0.000034   -0.07   -175.69   
   235. D(H  42,C  25,C  23,N  10)   -138.45 -0.000011    0.02   -138.43   
   236. D(C  26,C  25,C  23,O  24)    -73.44 -0.000034    0.07    -73.37   
   237. D(C   7,C  25,C  23,O  24)    163.44 -0.000021    0.05    163.50   
   238. D(C   7,C  25,C  23,N  10)    -19.47  0.000024    0.01    -19.46   
   239. D(C  26,C  25,C   7,H  32)    155.83  0.000016   -0.02    155.81   
   240. D(C  26,C  25,C   7,C   8)    -94.79  0.000017   -0.02    -94.81   
   241. D(C  26,C  25,C   7,C   6)     33.17  0.000036   -0.03     33.14   
   242. D(C  26,C  25,C  23,N  10)    103.65  0.000011    0.02    103.67   
   243. D(C  23,C  25,C   7,H  32)    -85.94 -0.000031    0.00    -85.93   
   244. D(C  23,C  25,C   7,C   8)     23.44 -0.000029    0.00     23.44   
   245. D(C  23,C  25,C   7,C   6)    151.40 -0.000011   -0.01    151.39   
   246. D(H  43,C  26,C  25,H  42)   -155.74 -0.000017    0.03   -155.71   
   247. D(H  43,C  26,C  25,C  23)    -37.67  0.000005    0.02    -37.65   
   248. D(H  43,C  26,C  25,C   7)     77.71 -0.000012    0.04     77.75   
   249. D(C  27,C  26,C  25,H  42)     84.53 -0.000015    0.03     84.56   
   250. D(C  27,C  26,C  25,C  23)   -157.40  0.000007    0.01   -157.39   
   251. D(C  27,C  26,C  25,C   7)    -42.02 -0.000010    0.03    -41.99   
   252. D(C   5,C  27,C  26,C  25)     59.50 -0.000006   -0.02     59.48   
   253. D(C   1,C  27,C  26,H  44)    -58.18  0.000002   -0.03    -58.20   
   254. D(C   1,C  27,C  26,H  43)     60.43  0.000018   -0.04     60.39   
   255. D(C  26,C  27,C   5,H  29)     50.29 -0.000013    0.01     50.30   
   256. D(C  26,C  27,C   5,C   6)    -68.69 -0.000007    0.01    -68.68   
   257. D(C  26,C  27,C   5,C   3)    159.97 -0.000001    0.01    159.98   
   258. D(C   1,C  27,C   5,H  29)    -80.87 -0.000024    0.02    -80.85   
   259. D(C   1,C  27,C   5,C   6)    160.15 -0.000019    0.02    160.17   
   260. D(C   1,C  27,C   5,C   3)     28.81 -0.000013    0.02     28.83   
   261. D(H  45,C  27,C   1,O   0)    -88.08  0.000000    0.02    -88.06   
   262. D(C   1,C  27,C  26,C  25)   -179.12  0.000009   -0.03   -179.15   
   263. D(C  26,C  27,C   1,N   2)   -148.69  0.000008   -0.03   -148.72   
   264. D(C  26,C  27,C   1,O   0)     34.20 -0.000028    0.03     34.24   
   265. D(C   5,C  27,C   1,N   2)    -23.65  0.000021   -0.04    -23.69   
   266. D(C   5,C  27,C  26,H  43)    -60.95  0.000003   -0.03    -60.98   
   267. D(C   5,C  27,C   1,O   0)    159.24 -0.000016    0.03    159.27   
   268. D(C   5,C  27,C  26,H  44)   -179.56 -0.000013   -0.02   -179.58   
    ----------------------------------------------------------------------------

Geometry step timings:
Preparation and reading OPT file:      0.000 s ( 0.298 %)
Internal coordinates            :      0.000 s ( 0.298 %)
B/P matrices and projection     :      0.008 s (48.716 %)
Hessian update/contruction      :      0.001 s ( 9.412 %)
Making the step                 :      0.005 s (30.823 %)
Converting the step to Cartesian:      0.000 s ( 3.189 %)
Storing new data                :      0.000 s ( 0.285 %)
Checking convergence            :      0.000 s ( 0.517 %)
Final printing                  :      0.001 s ( 6.456 %)
Total time                      :      0.015 s
                 *******************************************************
                 *** FINAL ENERGY EVALUATION AT THE STATIONARY POINT ***
                 ***               (AFTER   10 CYCLES)               ***
                 *******************************************************
---------------------------------
CARTESIAN COORDINATES (ANGSTROEM)
---------------------------------
  O     -5.737176   -3.002742    0.694906
  C     -5.586840   -1.861065    0.346580
  N     -6.326806   -1.209508   -0.640888
  C     -5.872055    0.073027   -0.961633
  O     -6.432829    0.848328   -1.689792
  C     -4.533200    0.207477   -0.249671
  C     -4.043487    1.554612    0.242616
  C     -2.732839    1.364643    1.028469
  C     -1.478309    1.339183    0.157680
  O     -1.305370    1.925051   -0.879229
  N     -0.524015    0.543367    0.811484
  C      0.836125    0.419998    0.389114
  C      1.435426   -0.833923    0.319366
  C      2.756193   -0.945920   -0.087487
  C      3.508765    0.180202   -0.438552
  C      4.919088    0.053393   -0.875767
  C      5.882571    0.988896   -0.480604
  C      7.204473    0.869552   -0.889842
  C      7.592750   -0.187595   -1.705707
  C      6.646884   -1.124572   -2.107338
  C      5.325623   -1.005698   -1.696053
  C      2.884165    1.430051   -0.362943
  C      1.565786    1.554689    0.047642
  C     -1.064037   -0.123435    1.925057
  O     -0.442622   -0.806621    2.696321
  C     -2.567027    0.115915    1.929753
  C     -3.272575   -1.176962    1.423792
  C     -4.641695   -0.800841    0.897062
  H     -7.130718   -1.629543   -1.086412
  H     -3.805735   -0.184864   -0.975223
  H     -4.796660    2.006658    0.892866
  H     -3.867192    2.245827   -0.581792
  H     -2.593830    2.247787    1.662397
  H      0.881099   -1.716912    0.603317
  H      3.215993   -1.925472   -0.109616
  H      5.598786    1.803248    0.174317
  H      7.934485    1.600159   -0.563720
  H      8.623025   -0.280373   -2.025570
  H      6.936328   -1.947164   -2.749685
  H      4.594497   -1.728654   -2.035638
  H      3.429098    2.319417   -0.651866
  H      1.100435    2.529471    0.081447
  H     -2.889088    0.309276    2.953295
  H     -2.691173   -1.640493    0.621009
  H     -3.322621   -1.900143    2.236867
  H     -5.213694   -0.328644    1.709668

----------------------------
CARTESIAN COORDINATES (A.U.)
----------------------------
  NO LB      ZA    FRAG     MASS         X           Y           Z
   0 O     8.0000    0    15.999  -10.841692   -5.674359    1.313183
   1 C     6.0000    0    12.011  -10.557597   -3.516903    0.654942
   2 N     7.0000    0    14.007  -11.955931   -2.285639   -1.211104
   3 C     6.0000    0    12.011  -11.096576    0.138002   -1.817223
   4 O     8.0000    0    15.999  -12.156285    1.603107   -3.193245
   5 C     6.0000    0    12.011   -8.566507    0.392074   -0.471809
   6 C     6.0000    0    12.011   -7.641083    2.937791    0.458477
   7 C     6.0000    0    12.011   -5.164318    2.578801    1.943524
   8 C     6.0000    0    12.011   -2.793598    2.530690    0.297972
   9 O     8.0000    0    15.999   -2.466793    3.637820   -1.661502
  10 N     7.0000    0    14.007   -0.990245    1.026815    1.533483
  11 C     6.0000    0    12.011    1.580047    0.793681    0.735318
  12 C     6.0000    0    12.011    2.712562   -1.575886    0.603514
  13 C     6.0000    0    12.011    5.208449   -1.787529   -0.165327
  14 C     6.0000    0    12.011    6.630606    0.340533   -0.828743
  15 C     6.0000    0    12.011    9.295730    0.100898   -1.654959
  16 C     6.0000    0    12.011   11.116447    1.868742   -0.908209
  17 C     6.0000    0    12.011   13.614482    1.643215   -1.681558
  18 C     6.0000    0    12.011   14.348219   -0.354503   -3.223320
  19 C     6.0000    0    12.011   12.560790   -2.125133   -3.982291
  20 C     6.0000    0    12.011   10.063969   -1.900494   -3.205076
  21 C     6.0000    0    12.011    5.450282    2.702404   -0.685862
  22 C     6.0000    0    12.011    2.958906    2.937936    0.090030
  23 C     6.0000    0    12.011   -2.010739   -0.233259    3.637831
  24 O     8.0000    0    15.999   -0.836435   -1.524293    5.095308
  25 C     6.0000    0    12.011   -4.850979    0.219047    3.646705
  26 C     6.0000    0    12.011   -6.184270   -2.224136    2.690576
  27 C     6.0000    0    12.011   -8.771533   -1.513371    1.695202
  28 H     1.0000    0     1.008  -13.475104   -3.079390   -2.053021
  29 H     1.0000    0     1.008   -7.191797   -0.349343   -1.842904
  30 H     1.0000    0     1.008   -9.064373    3.792035    1.687272
  31 H     1.0000    0     1.008   -7.307933    4.243997   -1.099427
  32 H     1.0000    0     1.008   -4.901628    4.247702    3.141476
  33 H     1.0000    0     1.008    1.665035   -3.244493    1.140104
  34 H     1.0000    0     1.008    6.077346   -3.638615   -0.207144
  35 H     1.0000    0     1.008   10.580173    3.407645    0.329412
  36 H     1.0000    0     1.008   14.994004    3.023862   -1.065277
  37 H     1.0000    0     1.008   16.295156   -0.529829   -3.827772
  38 H     1.0000    0     1.008   13.107759   -3.679607   -5.196151
  39 H     1.0000    0     1.008    8.682342   -3.266682   -3.846798
  40 H     1.0000    0     1.008    6.480057    4.383064   -1.231848
  41 H     1.0000    0     1.008    2.079522    4.780007    0.153912
  42 H     1.0000    0     1.008   -5.459585    0.584447    5.580919
  43 H     1.0000    0     1.008   -5.085580   -3.100082    1.173537
  44 H     1.0000    0     1.008   -6.278843   -3.590749    4.227066
  45 H     1.0000    0     1.008   -9.852454   -0.621048    3.230804

--------------------------------
INTERNAL COORDINATES (ANGSTROEM)
--------------------------------
 O      0   0   0     0.000000000000     0.00000000     0.00000000
 C      1   0   0     1.203062118792     0.00000000     0.00000000
 N      2   1   0     1.395410984607   125.57211856     0.00000000
 C      3   2   1     1.398060405253   114.72149544   186.31973268
 O      4   3   2     1.202403576133   125.36237809   187.21943869
 C      4   3   2     1.522333661960   105.05786444     9.65483250
 C      6   4   3     1.515565524054   120.97021669   210.65129774
 C      7   6   4     1.539951278177   109.33654416   174.92457790
 C      8   7   6     1.527340368458   114.21658708    85.30617312
 O      9   8   7     1.203465500590   126.95208706    31.10638212
 N      9   8   7     1.404086955565   107.59125228   208.77198544
 C     11   9   8     1.429544453663   123.91702813   188.29988693
 C     12  11   9     1.391526167472   120.15521639   225.84877792
 C     13  12  11     1.386541690736   119.85075734   180.18291452
 C     14  13  12     1.399200347300   121.39649020   359.74337602
 C     15  14  13     1.481974452085   121.13180932   180.14993730
 C     16  15  14     1.399863400376   120.96589112   218.90137377
 C     17  16  15     1.388937052734   120.96107186   179.96511947
 C     18  17  16     1.390667050264   120.25851260     0.09627303
 C     19  18  17     1.390645939740   119.45336394   359.94646216
 C     20  19  18     1.388890094856   120.25527441   359.95581818
 C     15  14  13     1.399272493786   117.72591188     0.13788325
 C     22  15  14     1.386448342478   121.38321024     0.12571796
 C     11   9   8     1.405807143987   112.12355625     8.63135759
 O     24  11   9     1.203223288279   125.35746525   184.30843289
 C     24  11   9     1.521936228154   107.89081489     7.21998833
 C     26  24  11     1.557345373019   108.41171077   103.67219428
 C     27  26  24     1.514398340318   108.44525466   202.61376546
 H      3   2   1     1.010541742655   122.66754622     6.58532946
 H      6   4   3     1.099800819623   103.98636614    88.56010907
 H      7   6   4     1.092904665917   109.76924435    54.77991607
 H      7   6   4     1.090185690878   111.72745171   295.74191455
 H      8   7   6     1.095962411689   107.68117018   200.04368919
 H     13  12  11     1.080544432357   120.14890193   358.76166455
 H     14  13  12     1.082325792465   118.93232177   178.29318168
 H     17  16  15     1.082878001690   119.53269506     1.55061847
 H     18  17  16     1.083078479525   119.65691719   180.58894766
 H     19  18  17     1.082767894101   120.27244317   179.94699189
 H     20  19  18     1.083072118796   120.08242157   179.47206820
 H     21  20  19     1.082832935717   119.49245596   178.52263015
 H     22  15  14     1.082313404668   119.65710806   181.58449989
 H     23  22  15     1.080691055464   119.98772933   181.05450334
 H     26  24  11     1.090297711544   108.81407533   221.57254211
 H     27  26  24     1.094234163087   110.44511234   322.35233999
 H     27  26  24     1.089305441490   109.23613961    79.66005993
 H     28  27  26     1.100218519775   108.64624751   300.92183449

---------------------------
INTERNAL COORDINATES (A.U.)
---------------------------
 O      0   0   0     0.000000000000     0.00000000     0.00000000
 C      1   0   0     2.273457926612     0.00000000     0.00000000
 N      2   1   0     2.636944605173   125.57211856     0.00000000
 C      3   2   1     2.641951284607   114.72149544   186.31973268
 O      4   3   2     2.272213461338   125.36237809   187.21943869
 C      4   3   2     2.876793705554   105.05786444     9.65483250
 C      6   4   3     2.864003778476   120.97021669   210.65129774
 C      7   6   4     2.910086175337   109.33654416   174.92457790
 C      8   7   6     2.886255009669   114.21658708    85.30617312
 O      9   8   7     2.274220207737   126.95208706    31.10638212
 N      9   8   7     2.653339814229   107.59125228   208.77198544
 C     11   9   8     2.701447513689   123.91702813   188.29988693
 C     12  11   9     2.629603364708   120.15521639   225.84877792
 C     13  12  11     2.620184068755   119.85075734   180.18291452
 C     14  13  12     2.644105462885   121.39649020   359.74337602
 C     15  14  13     2.800525851909   121.13180932   180.14993730
 C     16  15  14     2.645358451610   120.96589112   218.90137377
 C     17  16  15     2.624710646922   120.96107186   179.96511947
 C     18  17  16     2.627979868466   120.25851260     0.09627303
 C     19  18  17     2.627939975359   119.45336394   359.94646216
 C     20  19  18     2.624621909393   120.25527441   359.95581818
 C     15  14  13     2.644241799984   117.72591188     0.13788325
 C     22  15  14     2.620007666112   121.38321024     0.12571796
 C     11   9   8     2.656590499245   112.12355625     8.63135759
 O     24  11   9     2.273762492803   125.35746525   184.30843289
 C     24  11   9     2.876042664505   107.89081489     7.21998833
 C     26  24  11     2.942956250935   108.41171077   103.67219428
 C     27  26  24     2.861798120867   108.44525466   202.61376546
 H      3   2   1     1.909647140513   122.66754622     6.58532946
 H      6   4   3     2.078322350950   103.98636614    88.56010907
 H      7   6   4     2.065290509068   109.76924435    54.77991607
 H      7   6   4     2.060152390880   111.72745171   295.74191455
 H      8   7   6     2.071068811165   107.68117018   200.04368919
 H     13  12  11     2.041933052689   120.14890193   358.76166455
 H     14  13  12     2.045299335438   118.93232177   178.29318168
 H     17  16  15     2.046342859642   119.53269506     1.55061847
 H     18  17  16     2.046721707845   119.65691719   180.58894766
 H     19  18  17     2.046134786454   120.27244317   179.94699189
 H     20  19  18     2.046709687810   120.08242157   179.47206820
 H     21  20  19     2.046257697295   119.49245596   178.52263015
 H     22  15  14     2.045275925894   119.65710806   181.58449989
 H     23  22  15     2.042210130205   119.98772933   181.05450334
 H     26  24  11     2.060364079260   108.81407533   221.57254211
 H     27  26  24     2.067802894615   110.44511234   322.35233999
 H     27  26  24     2.058488960605   109.23613961    79.66005993
 H     28  27  26     2.079111689844   108.64624751   300.92183449

---------------------
BASIS SET INFORMATION
---------------------
There are 4 groups of distinct atoms

 Group   1 Type O   : 11s6p2d1f contracted to 5s3p2d1f pattern {62111/411/11/1}
 Group   2 Type C   : 11s6p2d1f contracted to 5s3p2d1f pattern {62111/411/11/1}
 Group   3 Type N   : 11s6p2d1f contracted to 5s3p2d1f pattern {62111/411/11/1}
 Group   4 Type H   : 5s1p contracted to 3s1p pattern {311/1}

Atom   0O    basis set group =>   1
Atom   1C    basis set group =>   2
Atom   2N    basis set group =>   3
Atom   3C    basis set group =>   2
Atom   4O    basis set group =>   1
Atom   5C    basis set group =>   2
Atom   6C    basis set group =>   2
Atom   7C    basis set group =>   2
Atom   8C    basis set group =>   2
Atom   9O    basis set group =>   1
Atom  10N    basis set group =>   3
Atom  11C    basis set group =>   2
Atom  12C    basis set group =>   2
Atom  13C    basis set group =>   2
Atom  14C    basis set group =>   2
Atom  15C    basis set group =>   2
Atom  16C    basis set group =>   2
Atom  17C    basis set group =>   2
Atom  18C    basis set group =>   2
Atom  19C    basis set group =>   2
Atom  20C    basis set group =>   2
Atom  21C    basis set group =>   2
Atom  22C    basis set group =>   2
Atom  23C    basis set group =>   2
Atom  24O    basis set group =>   1
Atom  25C    basis set group =>   2
Atom  26C    basis set group =>   2
Atom  27C    basis set group =>   2
Atom  28H    basis set group =>   4
Atom  29H    basis set group =>   4
Atom  30H    basis set group =>   4
Atom  31H    basis set group =>   4
Atom  32H    basis set group =>   4
Atom  33H    basis set group =>   4
Atom  34H    basis set group =>   4
Atom  35H    basis set group =>   4
Atom  36H    basis set group =>   4
Atom  37H    basis set group =>   4
Atom  38H    basis set group =>   4
Atom  39H    basis set group =>   4
Atom  40H    basis set group =>   4
Atom  41H    basis set group =>   4
Atom  42H    basis set group =>   4
Atom  43H    basis set group =>   4
Atom  44H    basis set group =>   4
Atom  45H    basis set group =>   4
---------------------------------
AUXILIARY/J BASIS SET INFORMATION
---------------------------------
There are 4 groups of distinct atoms

 Group   1 Type O   : 12s5p4d2f1g contracted to 6s4p3d1f1g pattern {711111/2111/211/2/1}
 Group   2 Type C   : 12s5p4d2f1g contracted to 6s4p3d1f1g pattern {711111/2111/211/2/1}
 Group   3 Type N   : 12s5p4d2f1g contracted to 6s4p3d1f1g pattern {711111/2111/211/2/1}
 Group   4 Type H   : 5s2p1d contracted to 3s1p1d pattern {311/2/1}

Atom   0O    basis set group =>   1
Atom   1C    basis set group =>   2
Atom   2N    basis set group =>   3
Atom   3C    basis set group =>   2
Atom   4O    basis set group =>   1
Atom   5C    basis set group =>   2
Atom   6C    basis set group =>   2
Atom   7C    basis set group =>   2
Atom   8C    basis set group =>   2
Atom   9O    basis set group =>   1
Atom  10N    basis set group =>   3
Atom  11C    basis set group =>   2
Atom  12C    basis set group =>   2
Atom  13C    basis set group =>   2
Atom  14C    basis set group =>   2
Atom  15C    basis set group =>   2
Atom  16C    basis set group =>   2
Atom  17C    basis set group =>   2
Atom  18C    basis set group =>   2
Atom  19C    basis set group =>   2
Atom  20C    basis set group =>   2
Atom  21C    basis set group =>   2
Atom  22C    basis set group =>   2
Atom  23C    basis set group =>   2
Atom  24O    basis set group =>   1
Atom  25C    basis set group =>   2
Atom  26C    basis set group =>   2
Atom  27C    basis set group =>   2
Atom  28H    basis set group =>   4
Atom  29H    basis set group =>   4
Atom  30H    basis set group =>   4
Atom  31H    basis set group =>   4
Atom  32H    basis set group =>   4
Atom  33H    basis set group =>   4
Atom  34H    basis set group =>   4
Atom  35H    basis set group =>   4
Atom  36H    basis set group =>   4
Atom  37H    basis set group =>   4
Atom  38H    basis set group =>   4
Atom  39H    basis set group =>   4
Atom  40H    basis set group =>   4
Atom  41H    basis set group =>   4
Atom  42H    basis set group =>   4
Atom  43H    basis set group =>   4
Atom  44H    basis set group =>   4
Atom  45H    basis set group =>   4


           ************************************************************
           *        Program running with 16 parallel MPI-processes    *
           *              working on a common directory               *
           ************************************************************
------------------------------------------------------------------------------
                             ORCA STARTUP CALCULATIONS
                           -- RI-GTO INTEGRALS CHOSEN --
------------------------------------------------------------------------------
------------------------------------------------------------------------------
                   ___                                                        
                  /   \      - P O W E R E D   B Y -                         
                 /     \                                                     
                 |  |  |   _    _      __       _____    __    __             
                 |  |  |  | |  | |    /  \     |  _  \  |  |  /  |          
                  \  \/   | |  | |   /    \    | | | |  |  | /  /          
                 / \  \   | |__| |  /  /\  \   | |_| |  |  |/  /          
                |  |  |   |  __  | /  /__\  \  |    /   |      \           
                |  |  |   | |  | | |   __   |  |    \   |  |\   \          
                \     /   | |  | | |  |  |  |  | |\  \  |  | \   \       
                 \___/    |_|  |_| |__|  |__|  |_| \__\ |__|  \__/        
                                                                              
                      - O R C A' S   B I G   F R I E N D -                    
                                      &                                       
                       - I N T E G R A L  F E E D E R -                       
                                                                              
 v1 FN, 2020, v2 2021, v3 2022-2024                                           
------------------------------------------------------------------------------


----------------------
SHARK INTEGRAL PACKAGE
----------------------

Number of atoms                             ...     46
Number of basis functions                   ...    976
Number of shells                            ...    380
Maximum angular momentum                    ...      3
Integral batch strategy                     ... SHARK/LIBINT Hybrid
RI-J (if used) integral strategy            ... SPLIT-RIJ (Revised 2003 algorithm where possible)
Printlevel                                  ...      1
Contraction scheme used                     ... SEGMENTED contraction
Prescreening option                         ... SCHWARTZ
   Thresh                                   ... 2.500e-11
   Tcut                                     ... 2.500e-12
   Tpresel                                  ... 2.500e-12 
Coulomb Range Separation                    ... NOT USED
Exchange Range Separation                   ... NOT USED
Multipole approximations                    ... NOT USED
Finite Nucleus Model                        ... NOT USED
CABS basis                                  ... NOT available
Auxiliary Coulomb fitting basis             ... AVAILABLE
   # of basis functions in Aux-J            ...   1570
   # of shells in Aux-J                     ...    510
   Maximum angular momentum in Aux-J        ...      4
Auxiliary J/K fitting basis                 ... NOT available
Auxiliary Correlation fitting basis         ... NOT available
Auxiliary 'external' fitting basis          ... NOT available

Checking pre-screening integrals            ... done (  0.0 sec) Dimension = 380
   => SHARK Basis and OBASIS are compatible. Storing Pre-screening
Shell pair information
Shell pair cut-off parameter TPreSel        ...   2.5e-12
Total number of shell pairs                 ...     72390
Shell pairs after pre-screening             ...     42400
Total number of primitive shell pairs       ...    224116
Primitive shell pairs kept                  ...     86616
          la=0 lb=0:  10618 shell pairs
          la=1 lb=0:  12289 shell pairs
          la=1 lb=1:   3567 shell pairs
          la=2 lb=0:   6010 shell pairs
          la=2 lb=1:   3516 shell pairs
          la=2 lb=2:    878 shell pairs
          la=3 lb=0:   2842 shell pairs
          la=3 lb=1:   1685 shell pairs
          la=3 lb=2:    798 shell pairs
          la=3 lb=3:    197 shell pairs

Checking whether 4 symmetric matrices of dimension 976 fit in memory
:Max Core in MB      =   4096.00
 MB in use           =     62.22
 MB left             =   4033.78
 MB needed           =     14.55
 Data fit in memory  = YES
Calculating RI/J V-Matrix + Cholesky decomp.... done (  0.1 sec)
Calculating Nuclear repulsion               ... done (  0.0 sec) ENN=   2403.827977882356 Eh

Diagonalization of the overlap matrix:
Smallest eigenvalue                        ... 6.582e-06
Time for diagonalization                   ...    0.154 sec
Threshold for overlap eigenvalues          ... 1.000e-07
Number of eigenvalues below threshold      ... 0
Time for construction of square roots      ...    0.066 sec
Total time needed                          ...    0.226 sec

-------------------
DFT GRID GENERATION
-------------------

General Integration Accuracy     IntAcc      ... 4.388
Radial Grid Type                 RadialGrid  ... OptM3 with GC (2021)
Angular Grid (max. ang.)         AngularGrid ... 4 (Lebedev-302)
Angular grid pruning method      GridPruning ... 4 (adaptive)
Weight generation scheme         WeightScheme... mBecke (2022)
Basis function cutoff            BFCut       ... 1.0000e-11
Integration weight cutoff        WCut        ... 1.0000e-14
Partially contracted basis set               ... off
Rotationally invariant grid construction     ... off
Angular grids for H and He will be reduced by one unit

Total number of grid points                  ...   224141
Total number of batches                      ...     3528
Average number of points per batch           ...       63
Average number of grid points per atom       ...     4873

--------------------
COSX GRID GENERATION
--------------------

GRIDX 1
-------
General Integration Accuracy     IntAcc      ... 3.816
Radial Grid Type                 RadialGrid  ... OptM3 with GC (2021)
Angular Grid (max. ang.)         AngularGrid ... 1 (Lebedev-50)
Angular grid pruning method      GridPruning ... 4 (adaptive)
Weight generation scheme         WeightScheme... mBecke (2022)
Basis function cutoff            BFCut       ... 1.0000e-11
Integration weight cutoff        WCut        ... 1.0000e-14
Partially contracted basis set               ... on
Rotationally invariant grid construction     ... off
Angular grids for H and He will be reduced by one unit

Total number of grid points                  ...    28409
Total number of batches                      ...      246
Average number of points per batch           ...      115
Average number of grid points per atom       ...      618
UseSFitting                                  ... on

GRIDX 2
-------
General Integration Accuracy     IntAcc      ... 4.020
Radial Grid Type                 RadialGrid  ... OptM3 with GC (2021)
Angular Grid (max. ang.)         AngularGrid ... 2 (Lebedev-110)
Angular grid pruning method      GridPruning ... 4 (adaptive)
Weight generation scheme         WeightScheme... mBecke (2022)
Basis function cutoff            BFCut       ... 1.0000e-11
Integration weight cutoff        WCut        ... 1.0000e-14
Partially contracted basis set               ... on
Rotationally invariant grid construction     ... off
Angular grids for H and He will be reduced by one unit

Total number of grid points                  ...    62276
Total number of batches                      ...      508
Average number of points per batch           ...      122
Average number of grid points per atom       ...     1354
UseSFitting                                  ... on

GRIDX 3
-------
General Integration Accuracy     IntAcc      ... 4.338
Radial Grid Type                 RadialGrid  ... OptM3 with GC (2021)
Angular Grid (max. ang.)         AngularGrid ... 3 (Lebedev-194)
Angular grid pruning method      GridPruning ... 4 (adaptive)
Weight generation scheme         WeightScheme... mBecke (2022)
Basis function cutoff            BFCut       ... 1.0000e-11
Integration weight cutoff        WCut        ... 1.0000e-14
Partially contracted basis set               ... on
Rotationally invariant grid construction     ... off
Angular grids for H and He will be reduced by one unit

Total number of grid points                  ...   136310
Total number of batches                      ...     1086
Average number of points per batch           ...      125
Average number of grid points per atom       ...     2963
UseSFitting                                  ... on
Grids setup in   1.8 sec
Initializing property integral containers    ... done (  0.0 sec)

SHARK setup successfully completed in   2.5 seconds

Maximum memory used throughout the entire STARTUP-calculation: 104.1 MB


           ************************************************************
           *        Program running with 16 parallel MPI-processes    *
           *              working on a common directory               *
           ************************************************************
-------------------------------------------------------------------------------
                                 ORCA GUESS
                   Start orbitals & Density for SCF / CASSCF
-------------------------------------------------------------------------------

------------
SCF SETTINGS
------------
Hamiltonian:
 Density Functional     Method          .... DFT(GTOs)
 Exchange Functional    Exchange        .... B88
   X-Alpha parameter    XAlpha          ....  0.666667
   Becke's b parameter  XBeta           ....  0.004200
 Correlation Functional Correlation     .... LYP
 LDA part of GGA corr.  LDAOpt          .... VWN-5
 Gradients option       PostSCFGGA      .... off
 Hybrid DFT is turned on
   Fraction HF Exchange ScalHFX         ....  0.200000
   Scaling of DF-GGA-X  ScalDFX         ....  0.720000
   Scaling of DF-GGA-C  ScalDFC         ....  0.810000
   Scaling of DF-LDA-C  ScalLDAC        ....  1.000000
   Perturbative correction              ....  0.000000
   NL short-range parameter             ....  4.800000
 RI-approximation to the Coulomb term is turned on
   Number of AuxJ basis functions       .... 1570
   RIJ-COSX (HFX calculated with COS-X)).... on


General Settings:
 Integral files         IntName         .... conjugate_row2_A2_H4
 Hartree-Fock type      HFTyp           .... RHF
 Total Charge           Charge          ....    0
 Multiplicity           Mult            ....    1
 Number of Electrons    NEL             ....  196
 Basis Dimension        Dim             ....  976
 Nuclear Repulsion      ENuc            ....   2403.8279778824 Eh

Convergence Acceleration:
 AO-DIIS                CNVDIIS         .... on
   Start iteration      DIISMaxIt       ....    12
   Startup error        DIISStart       ....  0.200000
   # of expansion vecs  DIISMaxEq       ....     5
   Bias factor          DIISBfac        ....   1.050
   Max. coefficient     DIISMaxC        ....  10.000
 MO-DIIS                CNVKDIIS        .... off
 Trust-Rad. Augm. Hess. CNVTRAH         .... auto
   Auto Start mean grad. ratio tolernc. ....  1.125000
   Auto Start start iteration           ....     1
   Auto Start num. interpolation iter.  ....    10
   Max. Number of Micro iterations      ....    24
   Max. Number of Macro iterations      .... Maxiter - #DIIS iter
   Number of Davidson start vectors     ....     2
   Converg. threshold    (grad. norm)   ....   1.000e-05
   Grad. Scal. Fac. for Micro threshold ....   0.100
   Minimum threshold for Micro iter.    ....   1.000e-02
   NR start threshold (gradient norm)   ....   1.000e-04
   Initial trust radius                 ....   0.400
   Minimum AH scaling param. (alpha)    ....   1.000
   Maximum AH scaling param. (alpha)    .... 1000.000
   Quad. conv. algorithm                .... NR
   White noise on init. David. guess    .... on
   Maximum white noise                  ....   0.010
   Pseudo random numbers                .... off
   Inactive MOs                         .... canonical
   Orbital update algorithm             .... Taylor
   Preconditioner                       .... Diag
   Full preconditioner red. dimension   ....   250
 SOSCF                 CNVSOSCF           .... on
   Start iteration     SOSCFMaxIt         ....   150
   Startup grad/error  SOSCFStart         ....  0.003300
   Hessian update      SOSCFHessUp        .... L-BFGS
   Autom. constraints  SOSCFAutoConstrain .... off
 Level Shifting         CNVShift        .... on
   Level shift para.    LevelShift      ....    0.2500
   Turn off err/grad.   ShiftErr        ....    0.0010
 Zerner damping         CNVZerner       .... off
 Static damping         CNVDamp         .... on
   Fraction old density DampFac         ....    0.7000
   Max. Damping (<1)    DampMax         ....    0.9800
   Min. Damping (>=0)   DampMin         ....    0.0000
   Turn off err/grad.   DampErr         ....    0.1000

SCF Procedure:
 Maximum # iterations   MaxIter         ....   500
 SCF integral mode      SCFMode         .... Direct
   Integral package                     .... SHARK and LIBINT hybrid scheme
 Reset frequency        DirectResetFreq ....    20
 Integral Threshold     Thresh          ....  2.500e-11 Eh
 Primitive CutOff       TCut            ....  2.500e-12 Eh

Convergence Tolerance:
 Convergence Check Mode ConvCheckMode   .... Total+1el-Energy
 Convergence forced     ConvForced      .... 0
 Energy Change          TolE            ....  1.000e-08 Eh
 1-El. energy change                    ....  1.000e-05 Eh
 Orbital Gradient       TolG            ....  1.000e-05
 Orbital Rotation angle TolX            ....  1.000e-05
 DIIS Error             TolErr          ....  5.000e-07

---------------------
INITIAL GUESS: MOREAD
---------------------
Guess MOs are being read from file: conjugate_row2_A2_H4.gbw
Input Geometry matches current geometry (good)
Input basis set matches current basis set (good)
Occupation numbers will be reassigned to an Aufbau configuration
MOs were renormalized
MOs were reorthogonalized (Cholesky)
                      ------------------
                      INITIAL GUESS DONE (   0.4 sec)
                      ------------------
             **** ENERGY FILE WAS UPDATED (conjugate_row2_A2_H4.en.tmp) ****
Finished Guess after   0.7 sec
Maximum memory used throughout the entire GUESS-calculation: 99.0 MB


           ************************************************************
           *        Program running with 16 parallel MPI-processes    *
           *              working on a common directory               *
           ************************************************************

-------------------------------------------------------------------------------------------
                                      ORCA LEAN-SCF
                              memory conserving SCF solver
-------------------------------------------------------------------------------------------

----------------------------------------D-I-I-S--------------------------------------------
Iteration    Energy (Eh)           Delta-E    RMSDP     MaxDP     DIISErr   Damp  Time(sec)
-------------------------------------------------------------------------------------------
               ***  Starting incremental Fock matrix formation  ***
                              *** Initializing SOSCF ***
---------------------------------------S-O-S-C-F--------------------------------------
Iteration    Energy (Eh)           Delta-E    RMSDP     MaxDP     MaxGrad    Time(sec)
--------------------------------------------------------------------------------------
    1    -1259.4067574737991890     0.00e+00  1.60e-04  2.26e-03  2.64e-05     7.1
               *** Restarting incremental Fock matrix formation ***
    2    -1259.4067598139663460    -2.34e-06  3.05e-05  4.34e-04  3.33e-05     6.7
    3    -1259.4067600742882860    -2.60e-07  9.82e-06  1.95e-04  1.57e-05     3.7
    4    -1259.4067600349744680     3.93e-08  7.62e-06  1.39e-04  3.62e-05     3.3
    5    -1259.4067600881739963    -5.32e-08  4.58e-06  8.09e-05  1.93e-06     3.1
                  *** Gradient check signals convergence ***

               *****************************************************
               *                     SUCCESS                       *
               *           SCF CONVERGED AFTER   5 CYCLES          *
               *****************************************************

Recomputing exchange energy using gridx3       ... done (   10.806 sec)
Old exchange energy                            :    -33.371861177 Eh
New exchange energy                            :    -33.371858570 Eh
Exchange energy change after final integration :      0.000002607 Eh
Total energy after final integration           :  -1259.406757501 Eh
             **** ENERGY FILE WAS UPDATED (conjugate_row2_A2_H4.en.tmp) ****

----------------
TOTAL SCF ENERGY
----------------

Total Energy       :      -1259.40675750125638 Eh          -34270.20013 eV

Components:
Nuclear Repulsion  :       2403.82797788235575 Eh           65411.48473 eV
Electronic Energy  :      -3663.23473799094836 Eh          -99681.68494 eV
One Electron Energy:      -6489.16843556437561 Eh         -176579.25025 eV
Two Electron Energy:       2825.93369757342725 Eh           76897.56531 eV

Virial components:
Potential Energy   :      -2513.39197451782366 Eh          -68392.87265 eV
Kinetic Energy     :       1253.98521701656705 Eh           34122.67252 eV
Virial Ratio       :          2.00432344848338

DFT components:
N(Alpha)           :       97.999967084580 electrons
N(Beta)            :       97.999967084580 electrons
N(Total)           :      195.999934169160 electrons
E(X)               :     -132.674454682811 Eh       
E(C)               :       -7.941437970208 Eh       
E(XC)              :     -140.615892653019 Eh       

---------------
SCF CONVERGENCE
---------------

  Last Energy change         ...    5.3200e-08  Tolerance :   1.0000e-08
  Last MAX-Density change    ...    8.0867e-05  Tolerance :   1.0000e-07
  Last RMS-Density change    ...    4.5765e-06  Tolerance :   5.0000e-09
  Last DIIS Error            ...    3.7170e-04  Tolerance :   5.0000e-07
  Last Orbital Gradient      ...    1.9252e-06  Tolerance :   1.0000e-05
  Last Orbital Rotation      ...    8.3199e-06  Tolerance :   1.0000e-05


----------------
ORBITAL ENERGIES
----------------

  NO   OCC          E(Eh)            E(eV) 
   0   2.0000     -19.131963      -520.6072 
   1   2.0000     -19.131390      -520.5916 
   2   2.0000     -19.131279      -520.5886 
   3   2.0000     -19.129326      -520.5354 
   4   2.0000     -14.389604      -391.5610 
   5   2.0000     -14.379372      -391.2826 
   6   2.0000     -10.307634      -280.4850 
   7   2.0000     -10.306905      -280.4651 
   8   2.0000     -10.304836      -280.4088 
   9   2.0000     -10.303813      -280.3810 
  10   2.0000     -10.230365      -278.3824 
  11   2.0000     -10.219851      -278.0963 
  12   2.0000     -10.219495      -278.0866 
  13   2.0000     -10.217370      -278.0288 
  14   2.0000     -10.215158      -277.9686 
  15   2.0000     -10.207666      -277.7647 
  16   2.0000     -10.201338      -277.5925 
  17   2.0000     -10.195042      -277.4212 
  18   2.0000     -10.191117      -277.3144 
  19   2.0000     -10.187919      -277.2274 
  20   2.0000     -10.187762      -277.2231 
  21   2.0000     -10.184353      -277.1303 
  22   2.0000     -10.184260      -277.1278 
  23   2.0000     -10.179173      -276.9894 
  24   2.0000     -10.179138      -276.9884 
  25   2.0000     -10.178647      -276.9751 
  26   2.0000     -10.178514      -276.9715 
  27   2.0000     -10.177717      -276.9498 
  28   2.0000      -1.088425       -29.6175 
  29   2.0000      -1.086360       -29.5614 
  30   2.0000      -1.069546       -29.1038 
  31   2.0000      -1.069275       -29.0965 
  32   2.0000      -0.979192       -26.6452 
  33   2.0000      -0.969975       -26.3944 
  34   2.0000      -0.889438       -24.2028 
  35   2.0000      -0.876435       -23.8490 
  36   2.0000      -0.858052       -23.3488 
  37   2.0000      -0.821260       -22.3476 
  38   2.0000      -0.795079       -21.6352 
  39   2.0000      -0.783290       -21.3144 
  40   2.0000      -0.764105       -20.7924 
  41   2.0000      -0.751855       -20.4590 
  42   2.0000      -0.736920       -20.0526 
  43   2.0000      -0.708899       -19.2901 
  44   2.0000      -0.695256       -18.9189 
  45   2.0000      -0.670024       -18.2323 
  46   2.0000      -0.647857       -17.6291 
  47   2.0000      -0.639284       -17.3958 
  48   2.0000      -0.623173       -16.9574 
  49   2.0000      -0.608103       -16.5473 
  50   2.0000      -0.605307       -16.4713 
  51   2.0000      -0.599849       -16.3227 
  52   2.0000      -0.593092       -16.1389 
  53   2.0000      -0.572133       -15.5685 
  54   2.0000      -0.536610       -14.6019 
  55   2.0000      -0.532553       -14.4915 
  56   2.0000      -0.526997       -14.3403 
  57   2.0000      -0.514307       -13.9950 
  58   2.0000      -0.498985       -13.5781 
  59   2.0000      -0.495584       -13.4855 
  60   2.0000      -0.487464       -13.2646 
  61   2.0000      -0.484176       -13.1751 
  62   2.0000      -0.474578       -12.9139 
  63   2.0000      -0.465332       -12.6623 
  64   2.0000      -0.462071       -12.5736 
  65   2.0000      -0.460525       -12.5315 
  66   2.0000      -0.451997       -12.2995 
  67   2.0000      -0.451720       -12.2919 
  68   2.0000      -0.449222       -12.2240 
  69   2.0000      -0.444287       -12.0897 
  70   2.0000      -0.438753       -11.9391 
  71   2.0000      -0.436359       -11.8739 
  72   2.0000      -0.431572       -11.7437 
  73   2.0000      -0.427312       -11.6277 
  74   2.0000      -0.425929       -11.5901 
  75   2.0000      -0.420291       -11.4367 
  76   2.0000      -0.409565       -11.1448 
  77   2.0000      -0.400224       -10.8907 
  78   2.0000      -0.394034       -10.7222 
  79   2.0000      -0.390799       -10.6342 
  80   2.0000      -0.386844       -10.5266 
  81   2.0000      -0.373849       -10.1730 
  82   2.0000      -0.371196       -10.1008 
  83   2.0000      -0.367274        -9.9940 
  84   2.0000      -0.358722        -9.7613 
  85   2.0000      -0.357036        -9.7154 
  86   2.0000      -0.350823        -9.5464 
  87   2.0000      -0.345840        -9.4108 
  88   2.0000      -0.319705        -8.6996 
  89   2.0000      -0.311562        -8.4780 
  90   2.0000      -0.301919        -8.2156 
  91   2.0000      -0.299181        -8.1411 
  92   2.0000      -0.280327        -7.6281 
  93   2.0000      -0.278868        -7.5884 
  94   2.0000      -0.277041        -7.5387 
  95   2.0000      -0.267689        -7.2842 
  96   2.0000      -0.262341        -7.1387 
  97   2.0000      -0.235268        -6.4020 
  98   0.0000      -0.051042        -1.3889 
  99   0.0000      -0.043494        -1.1835 
 100   0.0000      -0.041624        -1.1326 
 101   0.0000      -0.024088        -0.6555 
 102   0.0000      -0.017463        -0.4752 
 103   0.0000      -0.007165        -0.1950 
 104   0.0000       0.005749         0.1564 
 105   0.0000       0.010461         0.2847 
 106   0.0000       0.025999         0.7075 
 107   0.0000       0.031209         0.8493 
 108   0.0000       0.038257         1.0410 
*Only the first 10 virtual orbitals were printed.

                    ********************************
                    * MULLIKEN POPULATION ANALYSIS *
                    ********************************

-----------------------
MULLIKEN ATOMIC CHARGES
-----------------------
   0 O :   -0.272779
   1 C :    0.193109
   2 N :   -0.212847
   3 C :    0.184322
   4 O :   -0.268075
   5 C :   -0.081203
   6 C :   -0.212377
   7 C :    0.057856
   8 C :    0.100607
   9 O :   -0.288479
  10 N :   -0.055410
  11 C :    0.201873
  12 C :   -0.180118
  13 C :   -0.184510
  14 C :    0.175816
  15 C :    0.141754
  16 C :   -0.194044
  17 C :   -0.111635
  18 C :   -0.103878
  19 C :   -0.111369
  20 C :   -0.195038
  21 C :   -0.188029
  22 C :   -0.171331
  23 C :    0.163916
  24 O :   -0.284138
  25 C :    0.020723
  26 C :   -0.341305
  27 C :    0.049959
  28 H :    0.225076
  29 H :    0.108998
  30 H :    0.107216
  31 H :    0.135439
  32 H :    0.099117
  33 H :    0.122423
  34 H :    0.123097
  35 H :    0.119196
  36 H :    0.108201
  37 H :    0.109459
  38 H :    0.108434
  39 H :    0.119379
  40 H :    0.122781
  41 H :    0.119822
  42 H :    0.096177
  43 H :    0.118370
  44 H :    0.137954
  45 H :    0.085493
Sum of atomic charges:   -0.0000000

--------------------------------
MULLIKEN REDUCED ORBITAL CHARGES
--------------------------------
  0 O s       :     3.800493  s :     3.800493
      pz      :     1.544183  p :     4.440233
      px      :     1.574723
      py      :     1.321328
      dz2     :     0.003793  d :     0.030269
      dxz     :     0.001183
      dyz     :     0.009109
      dx2y2   :     0.007449
      dxy     :     0.008734
      f0      :     0.000156  f :     0.001785
      f+1     :     0.000023
      f-1     :     0.000369
      f+2     :     0.000319
      f-2     :     0.000145
      f+3     :     0.000442
      f-3     :     0.000332

  1 C s       :     3.098269  s :     3.098269
      pz      :     0.783569  p :     2.445739
      px      :     0.855580
      py      :     0.806590
      dz2     :     0.045340  d :     0.241094
      dxz     :     0.014846
      dyz     :     0.067162
      dx2y2   :     0.030142
      dxy     :     0.083605
      f0      :     0.002268  f :     0.021788
      f+1     :     0.001552
      f-1     :     0.003827
      f+2     :     0.004029
      f-2     :     0.002370
      f+3     :     0.004636
      f-3     :     0.003106

  2 N s       :     3.433642  s :     3.433642
      pz      :     1.325241  p :     3.725831
      px      :     1.244099
      py      :     1.156492
      dz2     :     0.007940  d :     0.049317
      dxz     :     0.007994
      dyz     :     0.011216
      dx2y2   :     0.010541
      dxy     :     0.011626
      f0      :     0.000485  f :     0.004057
      f+1     :     0.000466
      f-1     :     0.000505
      f+2     :     0.000766
      f-2     :     0.000752
      f+3     :     0.000483
      f-3     :     0.000599

  3 C s       :     3.103486  s :     3.103486
      pz      :     0.806285  p :     2.449060
      px      :     0.884320
      py      :     0.758455
      dz2     :     0.042724  d :     0.241323
      dxz     :     0.040712
      dyz     :     0.037838
      dx2y2   :     0.079701
      dxy     :     0.040348
      f0      :     0.001936  f :     0.021809
      f+1     :     0.002498
      f-1     :     0.003040
      f+2     :     0.004014
      f-2     :     0.003062
      f+3     :     0.002961
      f-3     :     0.004298

  4 O s       :     3.800138  s :     3.800138
      pz      :     1.357477  p :     4.435848
      px      :     1.565168
      py      :     1.513202
      dz2     :     0.007907  d :     0.030300
      dxz     :     0.004534
      dyz     :     0.006393
      dx2y2   :     0.005512
      dxy     :     0.005955
      f0      :     0.000165  f :     0.001789
      f+1     :     0.000168
      f-1     :     0.000368
      f+2     :     0.000311
      f-2     :     0.000290
      f+3     :     0.000228
      f-3     :     0.000259

  5 C s       :     3.163336  s :     3.163336
      pz      :     0.901287  p :     2.790683
      px      :     0.928907
      py      :     0.960488
      dz2     :     0.017036  d :     0.119146
      dxz     :     0.026948
      dyz     :     0.027470
      dx2y2   :     0.025425
      dxy     :     0.022268
      f0      :     0.000868  f :     0.008038
      f+1     :     0.000704
      f-1     :     0.001177
      f+2     :     0.001626
      f-2     :     0.001450
      f+3     :     0.001115
      f-3     :     0.001098

  6 C s       :     3.241110  s :     3.241110
      pz      :     1.005928  p :     2.883967
      px      :     0.933023
      py      :     0.945016
      dz2     :     0.009266  d :     0.081464
      dxz     :     0.014264
      dyz     :     0.022342
      dx2y2   :     0.015584
      dxy     :     0.020009
      f0      :     0.000188  f :     0.005836
      f+1     :     0.000727
      f-1     :     0.000772
      f+2     :     0.001305
      f-2     :     0.001167
      f+3     :     0.000722
      f-3     :     0.000956

  7 C s       :     3.060356  s :     3.060356
      pz      :     0.930747  p :     2.758963
      px      :     0.902088
      py      :     0.926128
      dz2     :     0.021054  d :     0.115195
      dxz     :     0.025560
      dyz     :     0.020828
      dx2y2   :     0.023904
      dxy     :     0.023849
      f0      :     0.000612  f :     0.007630
      f+1     :     0.001236
      f-1     :     0.000648
      f+2     :     0.002058
      f-2     :     0.001271
      f+3     :     0.000888
      f-3     :     0.000919

  8 C s       :     3.155076  s :     3.155076
      pz      :     0.786409  p :     2.468315
      px      :     0.905019
      py      :     0.776887
      dz2     :     0.054242  d :     0.254237
      dxz     :     0.089894
      dyz     :     0.037137
      dx2y2   :     0.036022
      dxy     :     0.036942
      f0      :     0.003769  f :     0.021765
      f+1     :     0.004561
      f-1     :     0.003115
      f+2     :     0.003092
      f-2     :     0.003724
      f+3     :     0.001802
      f-3     :     0.001702

  9 O s       :     3.813234  s :     3.813234
      pz      :     1.325289  p :     4.442930
      px      :     1.711298
      py      :     1.406344
      dz2     :     0.010378  d :     0.030529
      dxz     :     0.006734
      dyz     :     0.008183
      dx2y2   :     0.002683
      dxy     :     0.002552
      f0      :     0.000535  f :     0.001786
      f+1     :     0.000283
      f-1     :     0.000331
      f+2     :     0.000253
      f-2     :     0.000257
      f+3     :     0.000068
      f-3     :     0.000059

 10 N s       :     3.435850  s :     3.435850
      pz      :     1.178930  p :     3.533991
      px      :     1.006603
      py      :     1.348458
      dz2     :     0.015078  d :     0.080871
      dxz     :     0.022063
      dyz     :     0.010333
      dx2y2   :     0.015238
      dxy     :     0.018160
      f0      :     0.000524  f :     0.004697
      f+1     :     0.000676
      f-1     :     0.000619
      f+2     :     0.000900
      f-2     :     0.000703
      f+3     :     0.000586
      f-3     :     0.000689

 11 C s       :     3.121482  s :     3.121482
      pz      :     0.960141  p :     2.529188
      px      :     0.717577
      py      :     0.851471
      dz2     :     0.010937  d :     0.134688
      dxz     :     0.021158
      dyz     :     0.027155
      dx2y2   :     0.036359
      dxy     :     0.039078
      f0      :     0.001527  f :     0.012769
      f+1     :     0.001544
      f-1     :     0.000752
      f+2     :     0.001612
      f-2     :     0.001483
      f+3     :     0.001983
      f-3     :     0.003869

 12 C s       :     3.262257  s :     3.262257
      pz      :     0.956947  p :     2.830242
      px      :     0.935264
      py      :     0.938031
      dz2     :     0.008058  d :     0.080076
      dxz     :     0.016342
      dyz     :     0.013111
      dx2y2   :     0.017251
      dxy     :     0.025314
      f0      :     0.001149  f :     0.007544
      f+1     :     0.001164
      f-1     :     0.000407
      f+2     :     0.000893
      f-2     :     0.000794
      f+3     :     0.001245
      f-3     :     0.001891

 13 C s       :     3.215915  s :     3.215915
      pz      :     0.964091  p :     2.881653
      px      :     0.943968
      py      :     0.973594
      dz2     :     0.009637  d :     0.079559
      dxz     :     0.016135
      dyz     :     0.008608
      dx2y2   :     0.019717
      dxy     :     0.025463
      f0      :     0.000828  f :     0.007383
      f+1     :     0.001208
      f-1     :     0.000736
      f+2     :     0.000757
      f-2     :     0.000733
      f+3     :     0.001283
      f-3     :     0.001838

 14 C s       :     3.196243  s :     3.196243
      pz      :     0.898725  p :     2.498405
      px      :     0.761361
      py      :     0.838319
      dz2     :     0.011378  d :     0.119696
      dxz     :     0.020740
      dyz     :     0.022915
      dx2y2   :     0.031764
      dxy     :     0.032898
      f0      :     0.001224  f :     0.009841
      f+1     :     0.001071
      f-1     :     0.000706
      f+2     :     0.001055
      f-2     :     0.001241
      f+3     :     0.001559
      f-3     :     0.002985

 15 C s       :     3.235124  s :     3.235124
      pz      :     0.875098  p :     2.496294
      px      :     0.734440
      py      :     0.886755
      dz2     :     0.019995  d :     0.116987
      dxz     :     0.025462
      dyz     :     0.015250
      dx2y2   :     0.028500
      dxy     :     0.027780
      f0      :     0.000752  f :     0.009841
      f+1     :     0.001116
      f-1     :     0.001485
      f+2     :     0.001355
      f-2     :     0.001476
      f+3     :     0.001729
      f-3     :     0.001928

 16 C s       :     3.218596  s :     3.218596
      pz      :     0.968205  p :     2.887123
      px      :     0.922848
      py      :     0.996070
      dz2     :     0.007374  d :     0.080981
      dxz     :     0.020871
      dyz     :     0.010470
      dx2y2   :     0.019223
      dxy     :     0.023044
      f0      :     0.000573  f :     0.007344
      f+1     :     0.001098
      f-1     :     0.000755
      f+2     :     0.001119
      f-2     :     0.001071
      f+3     :     0.001197
      f-3     :     0.001531

 17 C s       :     3.203505  s :     3.203505
      pz      :     0.952358  p :     2.820879
      px      :     0.932351
      py      :     0.936169
      dz2     :     0.015118  d :     0.079918
      dxz     :     0.017133
      dyz     :     0.008462
      dx2y2   :     0.014655
      dxy     :     0.024549
      f0      :     0.000620  f :     0.007334
      f+1     :     0.000841
      f-1     :     0.001296
      f+2     :     0.001167
      f-2     :     0.001031
      f+3     :     0.000905
      f-3     :     0.001475

 18 C s       :     3.199031  s :     3.199031
      pz      :     0.945666  p :     2.820054
      px      :     0.957862
      py      :     0.916527
      dz2     :     0.014428  d :     0.077539
      dxz     :     0.011551
      dyz     :     0.013932
      dx2y2   :     0.023022
      dxy     :     0.014606
      f0      :     0.000612  f :     0.007254
      f+1     :     0.000609
      f-1     :     0.001494
      f+2     :     0.000975
      f-2     :     0.001195
      f+3     :     0.001327
      f-3     :     0.001041

 19 C s       :     3.203292  s :     3.203292
      pz      :     0.971140  p :     2.820860
      px      :     0.906344
      py      :     0.943377
      dz2     :     0.007437  d :     0.079884
      dxz     :     0.020177
      dyz     :     0.009937
      dx2y2   :     0.020966
      dxy     :     0.021367
      f0      :     0.000566  f :     0.007333
      f+1     :     0.001090
      f-1     :     0.000807
      f+2     :     0.001137
      f-2     :     0.001065
      f+3     :     0.001120
      f-3     :     0.001548

 20 C s       :     3.218899  s :     3.218899
      pz      :     0.938961  p :     2.887770
      px      :     0.966696
      py      :     0.982113
      dz2     :     0.015402  d :     0.081023
      dxz     :     0.016931
      dyz     :     0.008702
      dx2y2   :     0.013777
      dxy     :     0.026210
      f0      :     0.000617  f :     0.007346
      f+1     :     0.000860
      f-1     :     0.001203
      f+2     :     0.001226
      f-2     :     0.001054
      f+3     :     0.000886
      f-3     :     0.001500

 21 C s       :     3.217639  s :     3.217639
      pz      :     0.971184  p :     2.883546
      px      :     0.949492
      py      :     0.962870
      dz2     :     0.007151  d :     0.079468
      dxz     :     0.015573
      dyz     :     0.012309
      dx2y2   :     0.017744
      dxy     :     0.026691
      f0      :     0.001061  f :     0.007376
      f+1     :     0.001135
      f-1     :     0.000389
      f+2     :     0.000852
      f-2     :     0.000778
      f+3     :     0.001233
      f-3     :     0.001928

 22 C s       :     3.257696  s :     3.257696
      pz      :     0.965370  p :     2.826064
      px      :     0.912684
      py      :     0.948009
      dz2     :     0.010241  d :     0.080021
      dxz     :     0.016659
      dyz     :     0.009569
      dx2y2   :     0.018213
      dxy     :     0.025338
      f0      :     0.000869  f :     0.007551
      f+1     :     0.001257
      f-1     :     0.000771
      f+2     :     0.000801
      f-2     :     0.000779
      f+3     :     0.001304
      f-3     :     0.001768

 23 C s       :     3.142203  s :     3.142203
      pz      :     0.767153  p :     2.424598
      px      :     0.888803
      py      :     0.768642
      dz2     :     0.074824  d :     0.247450
      dxz     :     0.045340
      dyz     :     0.033408
      dx2y2   :     0.054028
      dxy     :     0.039849
      f0      :     0.003174  f :     0.021834
      f+1     :     0.003015
      f-1     :     0.003173
      f+2     :     0.004657
      f-2     :     0.003023
      f+3     :     0.002030
      f-3     :     0.002761

 24 O s       :     3.807020  s :     3.807020
      pz      :     1.447423  p :     4.444913
      px      :     1.630298
      py      :     1.367191
      dz2     :     0.007632  d :     0.030418
      dxz     :     0.006091
      dyz     :     0.005944
      dx2y2   :     0.005884
      dxy     :     0.004867
      f0      :     0.000204  f :     0.001787
      f+1     :     0.000313
      f-1     :     0.000254
      f+2     :     0.000366
      f-2     :     0.000291
      f+3     :     0.000188
      f-3     :     0.000170

 25 C s       :     3.105627  s :     3.105627
      pz      :     0.954678  p :     2.753533
      px      :     0.910508
      py      :     0.888347
      dz2     :     0.018534  d :     0.112433
      dxz     :     0.015454
      dyz     :     0.022785
      dx2y2   :     0.033568
      dxy     :     0.022093
      f0      :     0.000884  f :     0.007684
      f+1     :     0.000720
      f-1     :     0.001303
      f+2     :     0.001166
      f-2     :     0.000897
      f+3     :     0.001337
      f-3     :     0.001376

 26 C s       :     3.333638  s :     3.333638
      pz      :     1.063583  p :     2.921667
      px      :     0.915896
      py      :     0.942187
      dz2     :     0.008570  d :     0.080240
      dxz     :     0.015097
      dyz     :     0.019160
      dx2y2   :     0.018700
      dxy     :     0.018712
      f0      :     0.000184  f :     0.005761
      f+1     :     0.000724
      f-1     :     0.000964
      f+2     :     0.000981
      f-2     :     0.000889
      f+3     :     0.000878
      f-3     :     0.001140

 27 C s       :     3.076632  s :     3.076632
      pz      :     0.910862  p :     2.748021
      px      :     0.908709
      py      :     0.928451
      dz2     :     0.018857  d :     0.117322
      dxz     :     0.028360
      dyz     :     0.021347
      dx2y2   :     0.020819
      dxy     :     0.027940
      f0      :     0.000743  f :     0.008066
      f+1     :     0.001063
      f-1     :     0.001095
      f+2     :     0.001151
      f-2     :     0.001736
      f+3     :     0.001171
      f-3     :     0.001107

 28 H s       :     0.737407  s :     0.737407
      pz      :     0.011152  p :     0.037517
      px      :     0.017582
      py      :     0.008783

 29 H s       :     0.868241  s :     0.868241
      pz      :     0.008719  p :     0.022761
      px      :     0.008666
      py      :     0.005376

 30 H s       :     0.870991  s :     0.870991
      pz      :     0.007006  p :     0.021794
      px      :     0.008548
      py      :     0.006239

 31 H s       :     0.841792  s :     0.841792
      pz      :     0.009823  p :     0.022769
      px      :     0.004651
      py      :     0.008295

 32 H s       :     0.877747  s :     0.877747
      pz      :     0.007693  p :     0.023136
      px      :     0.004611
      py      :     0.010831

 33 H s       :     0.854949  s :     0.854949
      pz      :     0.005514  p :     0.022628
      px      :     0.006427
      py      :     0.010686

 34 H s       :     0.854316  s :     0.854316
      pz      :     0.004797  p :     0.022588
      px      :     0.005649
      py      :     0.012142

 35 H s       :     0.858318  s :     0.858318
      pz      :     0.008212  p :     0.022485
      px      :     0.004481
      py      :     0.009792

 36 H s       :     0.869462  s :     0.869462
      pz      :     0.005313  p :     0.022337
      px      :     0.008370
      py      :     0.008653

 37 H s       :     0.868198  s :     0.868198
      pz      :     0.005297  p :     0.022343
      px      :     0.012996
      py      :     0.004050

 38 H s       :     0.869228  s :     0.869228
      pz      :     0.008032  p :     0.022338
      px      :     0.004391
      py      :     0.009915

 39 H s       :     0.858130  s :     0.858130
      pz      :     0.005539  p :     0.022491
      px      :     0.008407
      py      :     0.008546

 40 H s       :     0.854627  s :     0.854627
      pz      :     0.005473  p :     0.022593
      px      :     0.006491
      py      :     0.010629

 41 H s       :     0.857603  s :     0.857603
      pz      :     0.004583  p :     0.022574
      px      :     0.005730
      py      :     0.012261

 42 H s       :     0.881182  s :     0.881182
      pz      :     0.013067  p :     0.022642
      px      :     0.005047
      py      :     0.004528

 43 H s       :     0.859701  s :     0.859701
      pz      :     0.008662  p :     0.021929
      px      :     0.006802
      py      :     0.006465

 44 H s       :     0.839621  s :     0.839621
      pz      :     0.009200  p :     0.022425
      px      :     0.004252
      py      :     0.008973

 45 H s       :     0.891829  s :     0.891829
      pz      :     0.009786  p :     0.022677
      px      :     0.006862
      py      :     0.006030



                     *******************************
                     * LOEWDIN POPULATION ANALYSIS *
                     *******************************

----------------------
LOEWDIN ATOMIC CHARGES
----------------------
   0 O :    0.120339
   1 C :   -0.381372
   2 N :    0.197868
   3 C :   -0.378870
   4 O :    0.123442
   5 C :   -0.175540
   6 C :   -0.183666
   7 C :   -0.163133
   8 C :   -0.355138
   9 O :    0.133359
  10 N :    0.295477
  11 C :   -0.152078
  12 C :   -0.092050
  13 C :   -0.091317
  14 C :   -0.091677
  15 C :   -0.097996
  16 C :   -0.100195
  17 C :   -0.136555
  18 C :   -0.138256
  19 C :   -0.136460
  20 C :   -0.100074
  21 C :   -0.091493
  22 C :   -0.091517
  23 C :   -0.354723
  24 O :    0.135359
  25 C :   -0.155504
  26 C :   -0.175406
  27 C :   -0.177514
  28 H :    0.192063
  29 H :    0.179769
  30 H :    0.144678
  31 H :    0.156191
  32 H :    0.176095
  33 H :    0.152171
  34 H :    0.150423
  35 H :    0.147157
  36 H :    0.142962
  37 H :    0.141997
  38 H :    0.143018
  39 H :    0.147217
  40 H :    0.150324
  41 H :    0.152186
  42 H :    0.161899
  43 H :    0.147509
  44 H :    0.151770
  45 H :    0.177260

-------------------------------
LOEWDIN REDUCED ORBITAL CHARGES
-------------------------------
  0 O s       :     3.398632  s :     3.398632
      pz      :     1.461952  p :     4.406651
      px      :     1.472332
      py      :     1.472367
      dz2     :     0.008924  d :     0.068157
      dxz     :     0.001780
      dyz     :     0.019159
      dx2y2   :     0.021454
      dxy     :     0.016841
      f0      :     0.000600  f :     0.006221
      f+1     :     0.000054
      f-1     :     0.001145
      f+2     :     0.001262
      f-2     :     0.000382
      f+3     :     0.001347
      f-3     :     0.001431

  1 C s       :     2.738043  s :     2.738043
      pz      :     0.828572  p :     2.648790
      px      :     0.852576
      py      :     0.967643
      dz2     :     0.157710  d :     0.869546
      dxz     :     0.074828
      dyz     :     0.228754
      dx2y2   :     0.156918
      dxy     :     0.251336
      f0      :     0.014390  f :     0.124993
      f+1     :     0.009342
      f-1     :     0.021014
      f+2     :     0.023407
      f-2     :     0.011847
      f+3     :     0.027000
      f-3     :     0.017993

  2 N s       :     2.931762  s :     2.931762
      pz      :     1.259334  p :     3.653343
      px      :     1.208570
      py      :     1.185439
      dz2     :     0.029207  d :     0.202348
      dxz     :     0.034116
      dyz     :     0.044532
      dx2y2   :     0.044121
      dxy     :     0.050372
      f0      :     0.001654  f :     0.014679
      f+1     :     0.001796
      f-1     :     0.001947
      f+2     :     0.002868
      f-2     :     0.001763
      f+3     :     0.002527
      f-3     :     0.002125

  3 C s       :     2.738320  s :     2.738320
      pz      :     0.828718  p :     2.647229
      px      :     0.925752
      py      :     0.892759
      dz2     :     0.131221  d :     0.868419
      dxz     :     0.146996
      dyz     :     0.163801
      dx2y2   :     0.252665
      dxy     :     0.173736
      f0      :     0.012723  f :     0.124902
      f+1     :     0.012860
      f-1     :     0.014601
      f+2     :     0.023659
      f-2     :     0.016921
      f+3     :     0.017377
      f-3     :     0.026762

  4 O s       :     3.398301  s :     3.398301
      pz      :     1.373138  p :     4.403800
      px      :     1.514368
      py      :     1.516293
      dz2     :     0.010351  d :     0.068223
      dxz     :     0.013162
      dyz     :     0.018235
      dx2y2   :     0.012904
      dxy     :     0.013571
      f0      :     0.000552  f :     0.006234
      f+1     :     0.000501
      f-1     :     0.000973
      f+2     :     0.001167
      f-2     :     0.001558
      f+3     :     0.000743
      f-3     :     0.000740

  5 C s       :     2.718680  s :     2.718680
      pz      :     0.963001  p :     2.912544
      px      :     0.964138
      py      :     0.985406
      dz2     :     0.068726  d :     0.491345
      dxz     :     0.115306
      dyz     :     0.112214
      dx2y2   :     0.106935
      dxy     :     0.088164
      f0      :     0.007360  f :     0.052971
      f+1     :     0.005701
      f-1     :     0.008027
      f+2     :     0.007131
      f-2     :     0.009298
      f+3     :     0.007416
      f-3     :     0.008038

  6 C s       :     2.764479  s :     2.764479
      pz      :     1.019876  p :     3.004037
      px      :     0.983421
      py      :     1.000741
      dz2     :     0.039619  d :     0.376550
      dxz     :     0.079514
      dyz     :     0.098515
      dx2y2   :     0.078432
      dxy     :     0.080470
      f0      :     0.003551  f :     0.038600
      f+1     :     0.005761
      f-1     :     0.005329
      f+2     :     0.005150
      f-2     :     0.005281
      f+3     :     0.005661
      f-3     :     0.007868

  7 C s       :     2.725165  s :     2.725165
      pz      :     0.983695  p :     2.917773
      px      :     0.968516
      py      :     0.965561
      dz2     :     0.062884  d :     0.470178
      dxz     :     0.117369
      dyz     :     0.104946
      dx2y2   :     0.111882
      dxy     :     0.073096
      f0      :     0.006669  f :     0.050017
      f+1     :     0.008791
      f-1     :     0.005158
      f+2     :     0.007358
      f-2     :     0.007546
      f+3     :     0.007092
      f-3     :     0.007402

  8 C s       :     2.733666  s :     2.733666
      pz      :     0.921679  p :     2.635413
      px      :     0.911747
      py      :     0.801987
      dz2     :     0.191345  d :     0.861866
      dxz     :     0.264669
      dyz     :     0.162563
      dx2y2   :     0.119365
      dxy     :     0.123924
      f0      :     0.019714  f :     0.124192
      f+1     :     0.027893
      f-1     :     0.019018
      f+2     :     0.015626
      f-2     :     0.020448
      f+3     :     0.010763
      f-3     :     0.010731

  9 O s       :     3.392212  s :     3.392212
      pz      :     1.439268  p :     4.399138
      px      :     1.577007
      py      :     1.382863
      dz2     :     0.021286  d :     0.069008
      dxz     :     0.015722
      dyz     :     0.021861
      dx2y2   :     0.004981
      dxy     :     0.005158
      f0      :     0.001260  f :     0.006283
      f+1     :     0.000989
      f-1     :     0.001930
      f+2     :     0.000931
      f-2     :     0.000900
      f+3     :     0.000137
      f-3     :     0.000137

 10 N s       :     2.869983  s :     2.869983
      pz      :     1.187353  p :     3.534415
      px      :     1.121898
      py      :     1.225164
      dz2     :     0.050892  d :     0.281410
      dxz     :     0.080232
      dyz     :     0.037422
      dx2y2   :     0.051348
      dxy     :     0.061515
      f0      :     0.002062  f :     0.018715
      f+1     :     0.003359
      f-1     :     0.002274
      f+2     :     0.003072
      f-2     :     0.002665
      f+3     :     0.001849
      f-3     :     0.003434

 11 C s       :     2.697373  s :     2.697373
      pz      :     0.889791  p :     2.807854
      px      :     0.845771
      py      :     1.072292
      dz2     :     0.049443  d :     0.573958
      dxz     :     0.079030
      dyz     :     0.090329
      dx2y2   :     0.189378
      dxy     :     0.165779
      f0      :     0.005352  f :     0.072893
      f+1     :     0.007227
      f-1     :     0.005298
      f+2     :     0.008922
      f-2     :     0.009527
      f+3     :     0.012559
      f-3     :     0.024009

 12 C s       :     2.756715  s :     2.756715
      pz      :     0.891996  p :     2.913150
      px      :     1.024386
      py      :     0.996769
      dz2     :     0.032132  d :     0.378408
      dxz     :     0.056987
      dyz     :     0.048529
      dx2y2   :     0.102636
      dxy     :     0.138124
      f0      :     0.003978  f :     0.043777
      f+1     :     0.004631
      f-1     :     0.003056
      f+2     :     0.006675
      f-2     :     0.004405
      f+3     :     0.008232
      f-3     :     0.012800

 13 C s       :     2.754022  s :     2.754022
      pz      :     0.901141  p :     2.915173
      px      :     1.023406
      py      :     0.990626
      dz2     :     0.039302  d :     0.379274
      dxz     :     0.062199
      dyz     :     0.030709
      dx2y2   :     0.118773
      dxy     :     0.128290
      f0      :     0.003078  f :     0.042849
      f+1     :     0.004415
      f-1     :     0.003843
      f+2     :     0.005650
      f-2     :     0.005100
      f+3     :     0.008093
      f-3     :     0.012668

 14 C s       :     2.698464  s :     2.698464
      pz      :     0.840595  p :     2.829707
      px      :     0.949044
      py      :     1.040068
      dz2     :     0.044048  d :     0.506775
      dxz     :     0.068233
      dyz     :     0.082149
      dx2y2   :     0.163048
      dxy     :     0.149297
      f0      :     0.004068  f :     0.056731
      f+1     :     0.004423
      f-1     :     0.005087
      f+2     :     0.005955
      f-2     :     0.008388
      f+3     :     0.009428
      f-3     :     0.019381

 15 C s       :     2.698937  s :     2.698937
      pz      :     0.902027  p :     2.836955
      px      :     0.957845
      py      :     0.977083
      dz2     :     0.071337  d :     0.505571
      dxz     :     0.095975
      dyz     :     0.073057
      dx2y2   :     0.139354
      dxy     :     0.125848
      f0      :     0.005130  f :     0.056533
      f+1     :     0.006924
      f-1     :     0.004955
      f+2     :     0.007769
      f-2     :     0.009182
      f+3     :     0.009926
      f-3     :     0.012646

 16 C s       :     2.756580  s :     2.756580
      pz      :     0.923676  p :     2.921322
      px      :     1.040458
      py      :     0.957188
      dz2     :     0.031425  d :     0.379622
      dxz     :     0.081562
      dyz     :     0.053552
      dx2y2   :     0.108106
      dxy     :     0.104978
      f0      :     0.003465  f :     0.042671
      f+1     :     0.007005
      f-1     :     0.002126
      f+2     :     0.005614
      f-2     :     0.006289
      f+3     :     0.007851
      f-3     :     0.010322

 17 C s       :     2.764732  s :     2.764732
      pz      :     0.940343  p :     2.941752
      px      :     1.025091
      py      :     0.976318
      dz2     :     0.056803  d :     0.386559
      dxz     :     0.082086
      dyz     :     0.044343
      dx2y2   :     0.076424
      dxy     :     0.126903
      f0      :     0.004485  f :     0.043511
      f+1     :     0.004602
      f-1     :     0.004582
      f+2     :     0.007532
      f-2     :     0.006182
      f+3     :     0.006562
      f-3     :     0.009566

 18 C s       :     2.765545  s :     2.765545
      pz      :     0.940805  p :     2.944654
      px      :     0.989713
      py      :     1.014135
      dz2     :     0.055651  d :     0.384545
      dxz     :     0.056549
      dyz     :     0.067988
      dx2y2   :     0.124795
      dxy     :     0.079562
      f0      :     0.004458  f :     0.043513
      f+1     :     0.004185
      f-1     :     0.004994
      f+2     :     0.005678
      f-2     :     0.007954
      f+3     :     0.008062
      f-3     :     0.008181

 19 C s       :     2.764719  s :     2.764719
      pz      :     0.920087  p :     2.941671
      px      :     1.055581
      py      :     0.966003
      dz2     :     0.031932  d :     0.386554
      dxz     :     0.082412
      dyz     :     0.053742
      dx2y2   :     0.112745
      dxy     :     0.105722
      f0      :     0.003516  f :     0.043516
      f+1     :     0.007163
      f-1     :     0.002200
      f+2     :     0.005813
      f-2     :     0.006358
      f+3     :     0.007878
      f-3     :     0.010588

 20 C s       :     2.756576  s :     2.756576
      pz      :     0.936536  p :     2.921217
      px      :     1.021656
      py      :     0.963025
      dz2     :     0.055471  d :     0.379611
      dxz     :     0.079125
      dyz     :     0.043294
      dx2y2   :     0.075750
      dxy     :     0.125971
      f0      :     0.004416  f :     0.042671
      f+1     :     0.004584
      f-1     :     0.004370
      f+2     :     0.007367
      f-2     :     0.006035
      f+3     :     0.006390
      f-3     :     0.009509

 21 C s       :     2.754035  s :     2.754035
      pz      :     0.899693  p :     2.915316
      px      :     1.017884
      py      :     0.997739
      dz2     :     0.029947  d :     0.379288
      dxz     :     0.056983
      dyz     :     0.045787
      dx2y2   :     0.106174
      dxy     :     0.140396
      f0      :     0.003630  f :     0.042854
      f+1     :     0.004551
      f-1     :     0.002868
      f+2     :     0.006264
      f-2     :     0.004266
      f+3     :     0.008011
      f-3     :     0.013263

 22 C s       :     2.756647  s :     2.756647
      pz      :     0.896494  p :     2.912673
      px      :     1.025437
      py      :     0.990742
      dz2     :     0.039757  d :     0.378418
      dxz     :     0.064544
      dyz     :     0.034012
      dx2y2   :     0.110280
      dxy     :     0.129826
      f0      :     0.003248  f :     0.043779
      f+1     :     0.004557
      f-1     :     0.004203
      f+2     :     0.005923
      f-2     :     0.005446
      f+3     :     0.008314
      f-3     :     0.012087

 23 C s       :     2.733256  s :     2.733256
      pz      :     0.857172  p :     2.635412
      px      :     0.969229
      py      :     0.809011
      dz2     :     0.226162  d :     0.861541
      dxz     :     0.172323
      dyz     :     0.151490
      dx2y2   :     0.162157
      dxy     :     0.149410
      f0      :     0.017056  f :     0.124514
      f+1     :     0.018279
      f-1     :     0.018359
      f+2     :     0.025035
      f-2     :     0.017033
      f+3     :     0.011740
      f-3     :     0.017012

 24 O s       :     3.393013  s :     3.393013
      pz      :     1.454788  p :     4.396548
      px      :     1.571133
      py      :     1.370627
      dz2     :     0.013159  d :     0.068805
      dxz     :     0.015280
      dyz     :     0.016912
      dx2y2   :     0.010338
      dxy     :     0.013116
      f0      :     0.000696  f :     0.006275
      f+1     :     0.000812
      f-1     :     0.001043
      f+2     :     0.001032
      f-2     :     0.001580
      f+3     :     0.000526
      f-3     :     0.000587

 25 C s       :     2.728806  s :     2.728806
      pz      :     0.981985  p :     2.913923
      px      :     0.958998
      py      :     0.972940
      dz2     :     0.101515  d :     0.462791
      dxz     :     0.060993
      dyz     :     0.086968
      dx2y2   :     0.125282
      dxy     :     0.088033
      f0      :     0.004865  f :     0.049984
      f+1     :     0.005504
      f-1     :     0.007022
      f+2     :     0.007735
      f-2     :     0.006383
      f+3     :     0.009080
      f-3     :     0.009395

 26 C s       :     2.768380  s :     2.768380
      pz      :     1.026869  p :     2.992308
      px      :     0.979044
      py      :     0.986395
      dz2     :     0.040757  d :     0.376549
      dxz     :     0.075429
      dyz     :     0.097242
      dx2y2   :     0.082390
      dxy     :     0.080731
      f0      :     0.002702  f :     0.038169
      f+1     :     0.006520
      f-1     :     0.004950
      f+2     :     0.004574
      f-2     :     0.004579
      f+3     :     0.006199
      f-3     :     0.008645

 27 C s       :     2.718970  s :     2.718970
      pz      :     0.965548  p :     2.912335
      px      :     0.979754
      py      :     0.967033
      dz2     :     0.074710  d :     0.493112
      dxz     :     0.118060
      dyz     :     0.099714
      dx2y2   :     0.085742
      dxy     :     0.114886
      f0      :     0.006237  f :     0.053096
      f+1     :     0.008536
      f-1     :     0.007227
      f+2     :     0.006292
      f-2     :     0.009742
      f+3     :     0.007529
      f-3     :     0.007535

 28 H s       :     0.703136  s :     0.703136
      pz      :     0.031214  p :     0.104802
      px      :     0.048278
      py      :     0.025311

 29 H s       :     0.762566  s :     0.762566
      pz      :     0.021128  p :     0.057665
      px      :     0.021410
      py      :     0.015126

 30 H s       :     0.796687  s :     0.796687
      pz      :     0.020467  p :     0.058635
      px      :     0.022124
      py      :     0.016044

 31 H s       :     0.782554  s :     0.782554
      pz      :     0.026854  p :     0.061255
      px      :     0.013148
      py      :     0.021253

 32 H s       :     0.765772  s :     0.765772
      pz      :     0.019325  p :     0.058133
      px      :     0.013288
      py      :     0.025521

 33 H s       :     0.788135  s :     0.788135
      pz      :     0.015052  p :     0.059694
      px      :     0.017456
      py      :     0.027186

 34 H s       :     0.790359  s :     0.790359
      pz      :     0.013556  p :     0.059218
      px      :     0.015280
      py      :     0.030383

 35 H s       :     0.793713  s :     0.793713
      pz      :     0.021391  p :     0.059130
      px      :     0.012652
      py      :     0.025087

 36 H s       :     0.798801  s :     0.798801
      pz      :     0.014598  p :     0.058237
      px      :     0.021452
      py      :     0.022187

 37 H s       :     0.799539  s :     0.799539
      pz      :     0.014594  p :     0.058464
      px      :     0.032012
      py      :     0.011858

 38 H s       :     0.798742  s :     0.798742
      pz      :     0.020661  p :     0.058240
      px      :     0.012576
      py      :     0.025004

 39 H s       :     0.793641  s :     0.793641
      pz      :     0.015131  p :     0.059142
      px      :     0.021825
      py      :     0.022186

 40 H s       :     0.790462  s :     0.790462
      pz      :     0.015112  p :     0.059214
      px      :     0.017240
      py      :     0.026862

 41 H s       :     0.788242  s :     0.788242
      pz      :     0.013156  p :     0.059572
      px      :     0.015641
      py      :     0.030775

 42 H s       :     0.779512  s :     0.779512
      pz      :     0.031519  p :     0.058588
      px      :     0.014106
      py      :     0.012963

 43 H s       :     0.793553  s :     0.793553
      pz      :     0.024574  p :     0.058938
      px      :     0.018043
      py      :     0.016320

 44 H s       :     0.787779  s :     0.787779
      pz      :     0.025560  p :     0.060451
      px      :     0.012303
      py      :     0.022588

 45 H s       :     0.765570  s :     0.765570
      pz      :     0.023117  p :     0.057169
      px      :     0.017561
      py      :     0.016491



                      *****************************
                      * MAYER POPULATION ANALYSIS *
                      *****************************

  NA   - Mulliken gross atomic population
  ZA   - Total nuclear charge
  QA   - Mulliken gross atomic charge
  VA   - Mayer's total valence
  BVA  - Mayer's bonded valence
  FA   - Mayer's free valence

  ATOM       NA         ZA         QA         VA         BVA        FA
  0 O      8.2728     8.0000    -0.2728     2.2254     2.2254     0.0000
  1 C      5.8069     6.0000     0.1931     4.3331     4.3331     0.0000
  2 N      7.2128     7.0000    -0.2128     3.0990     3.0990     0.0000
  3 C      5.8157     6.0000     0.1843     4.3368     4.3368    -0.0000
  4 O      8.2681     8.0000    -0.2681     2.2303     2.2303    -0.0000
  5 C      6.0812     6.0000    -0.0812     3.7207     3.7207    -0.0000
  6 C      6.2124     6.0000    -0.2124     4.0107     4.0107     0.0000
  7 C      5.9421     6.0000     0.0579     3.7582     3.7582     0.0000
  8 C      5.8994     6.0000     0.1006     4.3001     4.3001     0.0000
  9 O      8.2885     8.0000    -0.2885     2.2075     2.2075     0.0000
 10 N      7.0554     7.0000    -0.0554     3.1100     3.1100    -0.0000
 11 C      5.7981     6.0000     0.2019     3.7601     3.7601    -0.0000
 12 C      6.1801     6.0000    -0.1801     3.9956     3.9956     0.0000
 13 C      6.1845     6.0000    -0.1845     3.9491     3.9491    -0.0000
 14 C      5.8242     6.0000     0.1758     3.6750     3.6750     0.0000
 15 C      5.8582     6.0000     0.1418     3.6744     3.6744    -0.0000
 16 C      6.1940     6.0000    -0.1940     3.9613     3.9613    -0.0000
 17 C      6.1116     6.0000    -0.1116     3.9244     3.9244    -0.0000
 18 C      6.1039     6.0000    -0.1039     3.9198     3.9198    -0.0000
 19 C      6.1114     6.0000    -0.1114     3.9248     3.9248    -0.0000
 20 C      6.1950     6.0000    -0.1950     3.9626     3.9626    -0.0000
 21 C      6.1880     6.0000    -0.1880     3.9551     3.9551    -0.0000
 22 C      6.1713     6.0000    -0.1713     3.9941     3.9941    -0.0000
 23 C      5.8361     6.0000     0.1639     4.2600     4.2600    -0.0000
 24 O      8.2841     8.0000    -0.2841     2.2068     2.2068     0.0000
 25 C      5.9793     6.0000     0.0207     3.8237     3.8237     0.0000
 26 C      6.3413     6.0000    -0.3413     4.0161     4.0161     0.0000
 27 C      5.9500     6.0000     0.0500     3.5555     3.5555     0.0000
 28 H      0.7749     1.0000     0.2251     0.9733     0.9733     0.0000
 29 H      0.8910     1.0000     0.1090     0.9764     0.9764    -0.0000
 30 H      0.8928     1.0000     0.1072     0.9702     0.9702     0.0000
 31 H      0.8646     1.0000     0.1354     0.9972     0.9972    -0.0000
 32 H      0.9009     1.0000     0.0991     0.9673     0.9673     0.0000
 33 H      0.8776     1.0000     0.1224     0.9909     0.9909     0.0000
 34 H      0.8769     1.0000     0.1231     0.9776     0.9776    -0.0000
 35 H      0.8808     1.0000     0.1192     0.9758     0.9758    -0.0000
 36 H      0.8918     1.0000     0.1082     0.9713     0.9713    -0.0000
 37 H      0.8905     1.0000     0.1095     0.9691     0.9691    -0.0000
 38 H      0.8916     1.0000     0.1084     0.9713     0.9713    -0.0000
 39 H      0.8806     1.0000     0.1194     0.9758     0.9758    -0.0000
 40 H      0.8772     1.0000     0.1228     0.9772     0.9772    -0.0000
 41 H      0.8802     1.0000     0.1198     0.9892     0.9892    -0.0000
 42 H      0.9038     1.0000     0.0962     0.9762     0.9762     0.0000
 43 H      0.8816     1.0000     0.1184     0.9734     0.9734     0.0000
 44 H      0.8620     1.0000     0.1380     0.9870     0.9870    -0.0000
 45 H      0.9145     1.0000     0.0855     0.9833     0.9833     0.0000

  Mayer bond orders larger than 0.100000
B(  0-O ,  1-C ) :   2.1883 B(  1-C ,  2-N ) :   1.1266 B(  1-C , 27-C ) :   0.9046 
B(  2-N ,  3-C ) :   1.1218 B(  2-N , 28-H ) :   0.8967 B(  3-C ,  4-O ) :   2.2002 
B(  3-C ,  5-C ) :   0.9085 B(  5-C ,  6-C ) :   1.0059 B(  5-C , 27-C ) :   0.9043 
B(  5-C , 29-H ) :   0.9267 B(  6-C ,  7-C ) :   0.9446 B(  6-C , 30-H ) :   0.9599 
B(  6-C , 31-H ) :   0.9482 B(  7-C ,  8-C ) :   0.9642 B(  7-C , 25-C ) :   0.9575 
B(  7-C , 32-H ) :   0.9246 B(  8-C ,  9-O ) :   2.0996 B(  8-C , 10-N ) :   1.0830 
B( 10-N , 11-C ) :   0.9016 B( 10-N , 23-C ) :   1.0701 B( 11-C , 12-C ) :   1.3890 
B( 11-C , 22-C ) :   1.3826 B( 12-C , 13-C ) :   1.4475 B( 12-C , 33-H ) :   0.9566 
B( 13-C , 14-C ) :   1.3614 B( 13-C , 34-H ) :   0.9601 B( 14-C , 15-C ) :   0.9008 
B( 14-C , 21-C ) :   1.3620 B( 15-C , 16-C ) :   1.3725 B( 15-C , 20-C ) :   1.3729 
B( 16-C , 17-C ) :   1.4399 B( 16-C , 35-H ) :   0.9535 B( 17-C , 18-C ) :   1.4026 
B( 17-C , 36-H ) :   0.9707 B( 18-C , 19-C ) :   1.4025 B( 18-C , 37-H ) :   0.9684 
B( 19-C , 20-C ) :   1.4402 B( 19-C , 38-H ) :   0.9705 B( 20-C , 39-H ) :   0.9535 
B( 21-C , 22-C ) :   1.4511 B( 21-C , 40-H ) :   0.9604 B( 22-C , 41-H ) :   0.9588 
B( 23-C , 24-O ) :   2.1145 B( 23-C , 25-C ) :   0.9630 B( 25-C , 26-C ) :   0.9478 
B( 25-C , 42-H ) :   0.9352 B( 26-C , 27-C ) :   0.9334 B( 26-C , 43-H ) :   0.9619 
B( 26-C , 44-H ) :   0.9692 B( 27-C , 45-H ) :   0.9199 

-------
TIMINGS
-------

Total SCF time: 0 days 0 hours 0 min 37 sec 

Total time                  ....      37.929 sec
Sum of individual times     ....      35.445 sec  ( 93.5%)

SCF preparation             ....       0.354 sec  (  0.9%)
Fock matrix formation       ....      32.820 sec  ( 86.5%)
  Startup                   ....       0.034 sec  (  0.1% of F)
  Split-RI-J                ....       2.374 sec  (  7.2% of F)
  Chain of spheres X        ....      30.334 sec  ( 92.4% of F)
  XC integration            ....       2.076 sec  (  6.3% of F)
    XC Preparation          ....       0.000 sec  (  0.0% of XC)
    Basis function eval.    ....       0.413 sec  ( 19.9% of XC)
    Density eval.           ....       0.656 sec  ( 31.6% of XC)
    XC-Functional eval.     ....       0.028 sec  (  1.3% of XC)
    XC-Potential eval.      ....       0.772 sec  ( 37.2% of XC)
Diagonalization             ....       0.000 sec  (  0.0%)
Density matrix formation    ....       0.142 sec  (  0.4%)
Total Energy calculation    ....       0.069 sec  (  0.2%)
Population analysis         ....       0.238 sec  (  0.6%)
Orbital Transformation      ....       0.311 sec  (  0.8%)
Orbital Orthonormalization  ....       0.000 sec  (  0.0%)
DIIS solution               ....       0.363 sec  (  1.0%)
SOSCF solution              ....       1.147 sec  (  3.0%)
Finished LeanSCF after  38.0 sec

Maximum memory used throughout the entire LEANSCF-calculation: 138.7 MB

-------------------------   --------------------
FINAL SINGLE POINT ENERGY     -1259.406757501256
-------------------------   --------------------

                                *** OPTIMIZATION RUN DONE ***



           ************************************************************
           *        Program running with 16 parallel MPI-processes    *
           *              working on a common directory               *
           ************************************************************
------------------------------------------------------------------------------
                            ORCA SCF RESPONSE CALCULATION
------------------------------------------------------------------------------

GBWName                                 ... conjugate_row2_A2_H4.gbw
Number of atoms                         ...     46
Number of basis functions               ...    976
Max core memory                         ...   4096 MB

Electric field perturbation             ... YES
Quadrupolar field perturbation          ...  NO
Magnetic field perturbation (no GIAO)   ...  NO
Magnetic field perturbation (with GIAO) ...  NO
Linear momentum (velocity) perturbation ...  NO
Spin-orbit coupling perturbation        ...  NO
Choice of electric origin               ... Center of mass
Position of electric origin             ...    -0.682563     0.005103     0.009624
Choice of magnetic origin               ... GIAO
Position of magnetic origin             ...     0.000000     0.000000     0.000000
Nuclear geometric perturbations         ...  NO ( 138 perturbations)
Nucleus-orbit perturbations             ...  NO (   0 perturbations)
Spin-dipole/Fermi contact perturbations ...  NO (   0 perturbations)

Total number of real perturbations      ...      3
Total number of imaginary perturbations ...      0
Total number of triplet perturbations   ...      0
Total number of SOC perturbations       ...      0

Using XC Grid                  ... (conjugate_row2_A2_H4.grid_cpscf.tmp) 
Recalculating density on grid  ... (conjugate_row2_A2_H4.grho_cpscf0.tmp) done
Calculating the xc-kernel      ... (conjugate_row2_A2_H4.fxc_cpscf0.tmp) done

                                **********************
                                * REAL PERTURBATIONS *
                                **********************



-------------------
SHARK CP-SCF DRIVER
-------------------

Dimension of the orbital basis          ...    976
Dimension of the CPSCF-problem          ...  86044
Number of operators                     ...      1
Max. number of iterations               ...    128
Convergence Tolerance                   ... 1.0e-04
Number of perturbations                 ...      3
Perturbation type                       ... REAL

----------------------------
POPLE LINEAR EQUATION SOLVER
----------------------------

  ITERATION   0:   ||err||_max =   3.3246e+01 (   3.6 sec   0/  3 done)
  ITERATION   1:   ||err||_max =   2.2557e+00 (   3.2 sec   0/  3 done)
  ITERATION   2:   ||err||_max =   9.0604e-01 (   3.3 sec   0/  3 done)
  ITERATION   3:   ||err||_max =   3.2313e-01 (   3.3 sec   0/  3 done)
  ITERATION   4:   ||err||_max =   1.0726e-01 (   3.3 sec   0/  3 done)
  ITERATION   5:   ||err||_max =   4.3813e-02 (   3.3 sec   0/  3 done)
  ITERATION   6:   ||err||_max =   1.5924e-02 (   3.3 sec   0/  3 done)
  ITERATION   7:   ||err||_max =   5.3695e-03 (   3.3 sec   0/  3 done)
  ITERATION   8:   ||err||_max =   1.8291e-03 (   3.3 sec   0/  3 done)
  ITERATION   9:   ||err||_max =   6.2115e-04 (   3.3 sec   0/  3 done)
  ITERATION  10:   ||err||_max =   2.5735e-04 (   3.3 sec   0/  3 done)
  ITERATION  11:   ||err||_max =   7.6349e-05 (   3.3 sec   3/  3 done)

CP-SCF equations solved in  39.7 sec
Response densities calculated in   0.0 sec

Maximum memory used throughout the entire SCFRESP-calculation: 210.8 MB


           ************************************************************
           *        Program running with 16 parallel MPI-processes    *
           *              working on a common directory               *
           ************************************************************

------------------------------------------------------------------------------
                              ORCA PROPERTY CALCULATIONS
------------------------------------------------------------------------------

GBWName                                 ... conjugate_row2_A2_H4.gbw
Number of atoms                         ...     46
Number of basis functions               ...    976
Max core memory                         ...   4096 MB

Electric properties:
Dipole moment                           ... YES
Quadrupole moment                       ...  NO
Static polarizability (Dipole/Dipole)   ... YES
Static polarizability (Dipole/Quad.)    ...  NO
Static polarizability (Quad./Quad.)     ...  NO
Static polarizability (Velocity)        ...  NO
Static hyperpolarizability              ...  NO

Atomic electric properties:
Dipole moment                           ...  NO
Quadrupole moment                       ...  NO
Static polarizability                   ...  NO

Choice of electric origin               ... Center of mass
Position of electric origin             ...    -0.682563     0.005103     0.009624

General magnetic properties:
Magnetizability                         ...  NO

EPR properties:
g-Tensor (aka g-matrix)                 ...  NO
Zero-Field splitting spin-orbit         ...  NO
Zero-field splitting spin-spin          ...  NO
Hyperfine couplings                     ...  NO (   0 nuclei)
Quadrupole couplings                    ...  NO (   0 nuclei)
Contact density                         ...  NO (   0 nuclei)

NMR properties:
Chemical shifts                         ...  NO (   0 nuclei)
Spin-rotation constants                 ...  NO (   0 nuclei)
Spin-spin couplings                     ...  NO (   0 nuclei,    0 pairs)

Choice of magnetic origin               ... GIAO
Position of magnetic origin             ...     0.000000     0.000000     0.000000

Properties with geometric perturbations:
SCF Hessian                             ...  NO
IR spectrum                             ...  NO
VCD spectrum                            ...  NO
X-ray spectroscopy properties:
SCF XES/XAS/RIXS spectra                ...  NO

SCF SOC stabilization energy            ...  NO
Diagonal Born-Oppenheimer correction    ...  NO

-------------
DIPOLE MOMENT
-------------

Method             : SCF
Type of density    : Electron Density
Multiplicity       :   1
Irrep              :   0
Energy             : -1259.4067575012563793 Eh
Basis              : AO
                                X                 Y                 Z
Electronic contribution:    -11.187277996      -1.211239397       0.343273846
Nuclear contribution   :     11.513282757       1.604780743       0.072779640
                        -----------------------------------------
Total Dipole Moment    :      0.326004761       0.393541347       0.416053486
                        -----------------------------------------
Magnitude (a.u.)       :      0.658979817
Magnitude (Debye)      :      1.674993580



--------------------
Rotational spectrum 
--------------------
 
Rotational constants in cm-1:             0.016585             0.002154             0.002121 
Rotational constants in MHz :           497.201786            64.570391            63.595259 

Dipole components along the rotational axes: 
x,y,z [a.u.] :    -0.300267    -0.184834    -0.556714 
x,y,z [Debye]:    -0.763219    -0.469811    -1.415054 

 

Dipole moment calculation done in   0.0 sec 


---------------------------------------------------
STATIC POLARIZABILITY TENSOR (Dipole/Dipole)
---------------------------------------------------

Method             : SCF
Type of density    : Electron Density
Type of derivative : Electric Field (Direction=X)
Multiplicity       :   1
Irrep              :   0
Basis              : AO

The raw cartesian tensor (atomic units):
     396.816343799         1.063263233       -32.846224871  
       1.063263233       242.788862257        -5.230558685  
     -32.846224871        -5.230558685       204.195594620  
diagonalized tensor: 
     198.190914946       243.323782571       402.286103159  

Orientation: 
       0.161561689        -0.029933251        -0.986408547  
       0.111153402         0.993731413        -0.011949897  
       0.980582858        -0.107712021         0.163876108  

Isotropic polarizability : 281.26693


Polarizability tensor calculation done in   0.0 sec 

Maximum memory used throughout the entire PROP-calculation: 94.9 MB

--------------------------------
SUGGESTED CITATIONS FOR THIS RUN
--------------------------------

Below you find a list of papers that are relevant to this ORCA run
We neither can nor want to force you to cite these papers, but we appreciate if you do
You receive ORCA, which is the product of decades of hard work by many enthusiastic individuals, for free
The only thing we kindly ask in return is that you cite our papers,
We deeply appreciate it, if you show your appreciation for ORCA by not just citing the generic ORCA reference.

Please note that relegating all ORCA citations to the supporting information does *not* help us.
SI sections are not indexed - citations you put there will not count into any citation statistics
But we need these citations in order to attract the funding resources that allow us to do what we are doing

Therefore, if you are a happy ORCA user, please consider citing a few of the papers listed below in the main body of your paper

In addition to the list printed below, the program has created the file conjugate_row2_A2_H4.bibtex that contains the list in bibtex format
You can import this file easily into all common literature databanks and citation aid programs

It goes without saying that in many instances, there are alternative algorithms to achieve similar
results as the ones you have gotten from ORCA. It is, of course, also the case that in some instances
ORCA just re-implements algorithms worked out by others. We are fully aware of that and we are also
fully appreciative of our colleagues work. Hence this citation list should not be read as indicating
that the listed papers, which are focused on our own work, are the only ones worth citing. It simply
meant to make it easier for users to cite ORCA specific papers. It is not a substitute for doing your
own literature research and citing the relevant literature in a scientifically appropriate manner.

List of essential papers. We consider these as the minimum necessary citations

  1. Neese, F.
     Software update: the ORCA program system, version 6.0
     WIRES Comput. Molec. Sci. 2025 15(1), e70019
     doi.org/10.1002/wcms.70019

List of papers to cite with high priority. The work reported in these papers was absolutely
necessary for this run to complete.
Our perspective: the developers of density functionals and basis sets usually get cited in chemistry papers
Good! But without the algorithms to do something with them, the functionals or basis sets would not do anything.
Hence, in our opinion, the algorithm design and method developments papers are equally worthy of getting cited

  1. Neese, F.
     An improvement of the resolution of the identity approximation for the formation of the Coulomb matrix
     J. Comp. Chem. 2003 24(14), 1740-1747
     doi.org/10.1002/jcc.10318
  2. Neese, F.; Wennmohs, F.; Hansen, A.; Becker, U.
     Efficient, approximate and parallel Hartree-Fock and hybrid DFT calculations. A 'chain-of-spheres' algorithm for the Hartree-Fock exchange
     Chem. Phys. 2009 356(1-3), 98-109
     doi.org/10.1016/j.chemphys.2008.10.036
  3. Helmich-Paris, B.; de Souza, B.; Neese, F.; Izsák, R.
     An improved chain of spheres for exchange algorithm
     J. Chem. Phys. 2021 155(10), 104109
     doi.org/10.1063/5.0058766
  4. Neese, F.
     The SHARK Integral Generation and Digestion System
     J. Comp. Chem. 2022 44(3), 381
     doi.org/10.1002/jcc.26942

List of suggested additional citations. These are papers that are important in the 'surrounding' of 
of this run, or papers that preceded the highly important papers. If you like your results we are grateful for a citation.

  1. Izsak, R.; Neese, F.
     An overlap fitted chain of spheres exchange method
     J. Chem. Phys. 2011 135 , 144105
     doi.org/10.1063/1.3646921
  2. Izsak, R.; Hansen, A.; Neese, F.
     The resolution of identity and chain of spheres approximations for the LPNO-CCSD singles Fock term
     Molec. Phys. 2012 110 , 2413-2417
     doi.org/10.1080/00268976.2012.687466
  3. Neese, F.
     The ORCA program system
     WIRES Comput. Molec. Sci. 2012 2(1), 73-78
     doi.org/10.1002/wcms.81
  4. Izsak, R.; Neese, F.; Klopper, W.
     Robust fitting techniques in the chain of spheres approximation to the Fock exchange: The role of the complementary space
     J. Chem. Phys. 2013 139 , 
     doi.org/10.1063/1.4819264
  5. Neese, F.
     Software update: the ORCA program system, version 4.0
     WIRES Comput. Molec. Sci. 2018 8(1), 1-6
     doi.org/10.1002/wcms.1327
  6. Neese, F.; Wennmohs, F.; Becker, U.; Riplinger, C.
     The ORCA quantum chemistry program package
     J. Chem. Phys. 2020 152(22), 224108
     doi.org/10.1063/5.0004608
  7. Neese, F.
     Software update: The ORCA program system—Version 5.0
     WIRES Comput. Molec. Sci. 2022 12(1), e1606
     doi.org/10.1002/wcms.1606

List of optional additional citations

  1. Neese, F.
     Approximate second-order SCF convergence for spin unrestricted wavefunctions
     Chem. Phys. Lett. 2000 325(1-3), 93-98
     doi.org/10.1016/s0009-2614(00)00662-x

Timings for individual modules:

Sum of individual times          ...      941.692 sec (=  15.695 min)
Startup calculation              ...       31.022 sec (=   0.517 min)   3.3 %
SCF iterations                   ...      630.708 sec (=  10.512 min)  67.0 %
SCF Response                     ...       40.387 sec (=   0.673 min)   4.3 %
Property calculations            ...        0.490 sec (=   0.008 min)   0.1 %
SCF Gradient evaluation          ...      238.899 sec (=   3.982 min)  25.4 %
Geometry relaxation              ...        0.186 sec (=   0.003 min)   0.0 %
                             ****ORCA TERMINATED NORMALLY****
TOTAL RUN TIME: 0 days 0 hours 15 minutes 44 seconds 175 msec
