46
Coordinates from ORCA-job conjugate_row2_A2_H4 E -1259.390567292185
  O      -5.592951     -2.939584      0.011311
  C      -5.521748     -1.729056     -0.080107
  N      -6.283346     -0.922362     -0.879977
  C      -5.867546      0.380940     -0.859926
  O      -6.451511      1.336981     -1.332410
  C      -4.511853      0.373572     -0.206503
  C      -4.034552      1.586213      0.560967
  C      -2.710072      1.272775      1.277506
  C      -1.499031      1.278470      0.369550
  O      -1.450689      1.938574     -0.658099
  N      -0.549045      0.436852      0.918914
  C       0.807350      0.338992      0.471167
  C       1.652748     -0.696852      0.895342
  C       2.982921     -0.791043      0.455240
  C       3.525959      0.148785     -0.426822
  C       4.920170      0.050366     -0.888094
  C       5.800163      1.139811     -0.773481
  C       7.124413      1.046978     -1.210845
  C       7.591779     -0.138387     -1.772177
  C       6.736819     -1.230330     -1.895909
  C       5.413178     -1.136085     -1.457032
  C       2.689865      1.186144     -0.852109
  C       1.359601      1.278732     -0.412306
  C      -1.101368     -0.321216      1.934046
  O      -0.564656     -1.086184      2.722885
  C      -2.593973     -0.103466      1.939691
  C      -3.291983     -1.263324      1.200145
  C      -4.655980     -0.809729      0.737866
  H      -7.083516     -1.246712     -1.399821
  H      -3.795155      0.148471     -1.010737
  H      -4.788423      1.872189      1.305583
  H      -3.929422      2.443990     -0.113186
  H      -2.525032      2.060995      2.020986
  H       1.313756     -1.478148      1.569448
  H       3.596156     -1.611811      0.824215
  H       5.460136      2.072264     -0.327350
  H       7.789667      1.900487     -1.109750
  H       8.621216     -0.211142     -2.112859
  H       7.097084     -2.156330     -2.336380
  H       4.759869     -1.998399     -1.574417
  H       3.062252      1.938123     -1.546112
  H       0.788564      2.125610     -0.782313
  H      -2.958192     -0.040961      2.971672
  H      -2.694365     -1.609807      0.346613
  H      -3.380057     -2.128946      1.867953
  H      -5.259198     -0.537357      1.617620
46
Coordinates from ORCA-job conjugate_row2_A2_H4 E -1259.400872302508
  O      -5.648633     -2.953394      0.048293
  C      -5.555948     -1.751162     -0.042816
  N      -6.306531     -0.931867     -0.871992
  C      -5.876418      0.387618     -0.890393
  O      -6.463565      1.321335     -1.384751
  C      -4.525277      0.383587     -0.200796
  C      -4.036721      1.606787      0.548397
  C      -2.715919      1.274095      1.261261
  C      -1.488775      1.293065      0.357048
  O      -1.392105      1.957859     -0.650355
  N      -0.529270      0.436601      0.906880
  C       0.829374      0.340440      0.460355
  C       1.649077     -0.717083      0.863485
  C       2.967706     -0.806013      0.427551
  C       3.522077      0.152426     -0.424138
  C       4.922913      0.052773     -0.886462
  C       5.793923      1.144363     -0.785745
  C       7.112894      1.051099     -1.219577
  C       7.585426     -0.137459     -1.765360
  C       6.733803     -1.231406     -1.874053
  C       5.415924     -1.136241     -1.437426
  C       2.698354      1.208702     -0.821180
  C       1.378839      1.304172     -0.389915
  C      -1.087135     -0.333226      1.931066
  O      -0.519038     -1.095720      2.681444
  C      -2.587906     -0.108192      1.943012
  C      -3.285884     -1.279826      1.208599
  C      -4.651956     -0.819598      0.743104
  H      -7.109606     -1.259063     -1.390623
  H      -3.804792      0.144720     -0.993270
  H      -4.783014      1.905660      1.290162
  H      -3.906723      2.455309     -0.124827
  H      -2.532178      2.051335      2.011180
  H       1.291076     -1.490434      1.523838
  H       3.571002     -1.634425      0.776292
  H       5.446468      2.074000     -0.350746
  H       7.771662      1.905702     -1.126829
  H       8.611749     -0.210798     -2.104165
  H       7.093028     -2.158759     -2.302886
  H       4.762642     -1.994437     -1.541944
  H       3.077727      1.968600     -1.492371
  H       0.801112      2.143894     -0.741330
  H      -2.936243     -0.062952      2.975685
  H      -2.694162     -1.618841      0.352528
  H      -3.359687     -2.137237      1.880150
  H      -5.239286     -0.526925      1.623615
46
Coordinates from ORCA-job conjugate_row2_A2_H4 E -1259.403875998227
  O      -5.711189     -2.963040      0.146459
  C      -5.581537     -1.774476      0.016127
  N      -6.329725     -0.961312     -0.837975
  C      -5.889494      0.364910     -0.908020
  O      -6.464959      1.264212     -1.460357
  C      -4.539833      0.370128     -0.202700
  C      -4.037793      1.612402      0.507738
  C      -2.722670      1.280309      1.229216
  C      -1.487427      1.302103      0.330950
  O      -1.360274      1.956997     -0.669946
  N      -0.519535      0.440812      0.891107
  C       0.844855      0.343335      0.447103
  C       1.627126     -0.764898      0.780421
  C       2.940671     -0.849503      0.346372
  C       3.525989      0.155250     -0.425908
  C       4.932097      0.054992     -0.886167
  C       5.802162      1.143776     -0.776481
  C       7.119389      1.049883     -1.206405
  C       7.592263     -0.135765     -1.757682
  C       6.737489     -1.226214     -1.874031
  C       5.421332     -1.131223     -1.441189
  C       2.732285      1.258040     -0.747462
  C       1.416289      1.357665     -0.324992
  C      -1.086401     -0.323236      1.933280
  O      -0.498799     -1.066469      2.674702
  C      -2.589040     -0.086822      1.945268
  C      -3.290240     -1.278868      1.236226
  C      -4.655549     -0.820889      0.761324
  H      -7.135608     -1.298250     -1.346236
  H      -3.819111      0.099630     -0.985983
  H      -4.778511      1.941931      1.240421
  H      -3.879389      2.438196     -0.184987
  H      -2.539647      2.061844      1.974056
  H       1.233396     -1.559131      1.388580
  H       3.524013     -1.713336      0.636697
  H       5.450141      2.067423     -0.334518
  H       7.778874      1.902385     -1.104679
  H       8.618611     -0.209352     -2.093935
  H       7.093734     -2.151542     -2.308634
  H       4.761123     -1.982303     -1.551569
  H       3.138548      2.052861     -1.359001
  H       0.845713      2.220421     -0.618844
  H      -2.925731     -0.037946      2.979944
  H      -2.701878     -1.624198      0.381350
  H      -3.354897     -2.119449      1.926237
  H      -5.236864     -0.492200      1.634119
46
Coordinates from ORCA-job conjugate_row2_A2_H4 E -1259.405035106047
  O      -5.735597     -2.977916      0.269913
  C      -5.592810     -1.798445      0.093258
  N      -6.333966     -1.014490     -0.797572
  C      -5.884784      0.306778     -0.932335
  O      -6.456178      1.176266     -1.531207
  C      -4.542123      0.338367     -0.212324
  C      -4.040530      1.604705      0.454337
  C      -2.727141      1.297154      1.191202
  C      -1.488620      1.317048      0.298942
  O      -1.350095      1.959127     -0.707462
  N      -0.517863      0.463868      0.875898
  C       0.845765      0.360945      0.434829
  C       1.581367     -0.802916      0.670301
  C       2.895489     -0.891192      0.239800
  C       3.524182      0.160893     -0.429291
  C       4.931915      0.054771     -0.885169
  C       5.816230      1.128039     -0.738017
  C       7.134142      1.028148     -1.163702
  C       7.594389     -0.146888     -1.747973
  C       6.724767     -1.221198     -1.901359
  C       5.407690     -1.121482     -1.473117
  C       2.772742      1.316986     -0.651771
  C       1.456451      1.425002     -0.233279
  C      -1.082488     -0.282429      1.937958
  O      -0.484074     -1.014177      2.680117
  C      -2.584826     -0.046378      1.944671
  C      -3.285322     -1.262611      1.270759
  C      -4.652269     -0.819686      0.788287
  H      -7.140091     -1.369036     -1.293312
  H      -3.817525      0.038833     -0.982583
  H      -4.782249      1.962892      1.172486
  H      -3.869850      2.403627     -0.266558
  H      -2.551231      2.096310      1.919896
  H       1.145100     -1.629110      1.204405
  H       3.448421     -1.797137      0.453143
  H       5.472473      2.040605     -0.267275
  H       7.805081      1.867872     -1.031709
  H       8.621594     -0.224663     -2.080850
  H       7.070314     -2.137871     -2.362894
  H       4.733405     -1.956992     -1.613975
  H       3.215044      2.149009     -1.184757
  H       0.908544      2.325932     -0.448490
  H      -2.917162      0.022052      2.980001
  H      -2.698628     -1.622455      0.420436
  H      -3.342141     -2.083461      1.984441
  H      -5.227543     -0.455614      1.651901
46
Coordinates from ORCA-job conjugate_row2_A2_H4 E -1259.406163093546
  O      -5.762862     -2.989028      0.482754
  C      -5.601578     -1.828112      0.219929
  N      -6.338040     -1.101281     -0.721777
  C      -5.879306      0.203166     -0.955232
  O      -6.439770      1.021687     -1.631258
  C      -4.541599      0.279987     -0.230416
  C      -4.038490      1.584928      0.354317
  C      -2.726396      1.324925      1.114947
  C      -1.483742      1.323846      0.231592
  O      -1.324814      1.940476     -0.788307
  N      -0.516944      0.494735      0.846955
  C       0.843211      0.384112      0.416915
  C       1.505353     -0.842398      0.485669
  C       2.822251     -0.936900      0.063770
  C       3.518583      0.168968     -0.432801
  C       4.927470      0.055232     -0.881045
  C       5.842386      1.087760     -0.644092
  C       7.161911      0.980131     -1.063250
  C       7.595350     -0.160724     -1.730291
  C       6.696293     -1.193679     -1.973325
  C       5.377169     -1.087713     -1.552498
  C       2.833075      1.386186     -0.490751
  C       1.515947      1.503038     -0.076034
  C      -1.075565     -0.214009      1.938554
  O      -0.463203     -0.913864      2.700389
  C      -2.575996      0.027308      1.938550
  C      -3.280042     -1.227299      1.337245
  C      -4.648109     -0.811294      0.837733
  H      -7.144790     -1.485497     -1.193852
  H      -3.816156     -0.068427     -0.980760
  H      -4.781274      1.992945      1.044368
  H      -3.855322      2.333002     -0.416797
  H      -2.560174      2.161494      1.804184
  H       1.003492     -1.707444      0.889603
  H       3.326186     -1.891659      0.147853
  H       5.519499      1.969209     -0.104453
  H       7.855926      1.786720     -0.860373
  H       8.623993     -0.243941     -2.057740
  H       7.020644     -2.082582     -2.500609
  H       4.678324     -1.886568     -1.766774
  H       3.329702      2.260277     -0.893213
  H       1.005922      2.449974     -0.159008
  H      -2.903532      0.145332      2.971789
  H      -2.696378     -1.625366      0.501699
  H      -3.330177     -2.007386      2.095726
  H      -5.218427     -0.391186      1.680115
46
Coordinates from ORCA-job conjugate_row2_A2_H4 E -1259.406558853946
  O      -5.742498     -3.001577      0.593198
  C      -5.584677     -1.850558      0.283102
  N      -6.321883     -1.164896     -0.684836
  C      -5.865876      0.127814     -0.968211
  O      -6.425985      0.919039     -1.678428
  C      -4.532307      0.240387     -0.242905
  C      -4.041628      1.568648      0.296806
  C      -2.730307      1.348627      1.073893
  C      -1.481055      1.341973      0.200074
  O      -1.314746      1.942344     -0.829616
  N      -0.520440      0.529479      0.835386
  C       0.835994      0.410241      0.408779
  C       1.455287     -0.837950      0.386436
  C       2.774184     -0.943685     -0.028089
  C       3.509436      0.176242     -0.432002
  C       4.917482      0.052499     -0.877241
  C       5.858571      1.044546     -0.574118
  C       7.177960      0.928132     -0.992040
  C       7.586776     -0.181435     -1.724065
  C       6.663418     -1.174318     -2.033387
  C       5.344291     -1.059450     -1.614245
  C       2.864023      1.417475     -0.400235
  C       1.547026      1.542170      0.014546
  C      -1.068132     -0.155032      1.941835
  O      -0.449427     -0.851937      2.702705
  C      -2.569567      0.077586      1.936680
  C      -3.266709     -1.200119      1.376983
  C      -4.636506     -0.809278      0.864142
  H      -7.125353     -1.570235     -1.144539
  H      -3.802422     -0.127223     -0.979966
  H      -4.791838      1.997628      0.965970
  H      -3.859679      2.288104     -0.501733
  H      -2.580608      2.209828      1.736194
  H       0.916261     -1.714161      0.716572
  H       3.248053     -1.917113     -0.012880
  H       5.556778      1.899735      0.017396
  H       7.891012      1.703000     -0.737662
  H       8.615301     -0.271469     -2.050445
  H       6.968908     -2.038313     -2.611070
  H       4.627501     -1.825253     -1.882701
  H       3.391951      2.303155     -0.730669
  H       1.064020      2.508500      0.008057
  H      -2.899755      0.227683      2.965227
  H      -2.680030     -1.620799      0.554564
  H      -3.312772     -1.955679      2.160296
  H      -5.210030     -0.365276      1.692240
46
Coordinates from ORCA-job conjugate_row2_A2_H4 E -1259.406721399585
  O      -5.752548     -2.995658      0.668167
  C      -5.595944     -1.851349      0.330007
  N      -6.333653     -1.187851     -0.650076
  C      -5.874130      0.094732     -0.961309
  O      -6.431850      0.875460     -1.686579
  C      -4.536190      0.219266     -0.247413
  C      -4.041173      1.558634      0.259828
  C      -2.728647      1.354822      1.040139
  C      -1.477875      1.331050      0.167035
  O      -1.304950      1.925693     -0.865474
  N      -0.522557      0.531887      0.816578
  C       0.836435      0.412784      0.396825
  C       1.442278     -0.839220      0.336034
  C       2.763286     -0.947538     -0.071340
  C       3.511968      0.178380     -0.433171
  C       4.920878      0.054282     -0.873922
  C       5.874843      1.017236     -0.520985
  C       7.195399      0.900818     -0.935265
  C       7.593320     -0.180599     -1.713723
  C       6.658207     -1.145089     -2.072892
  C       5.338030     -1.029344     -1.657315
  C       2.880241      1.425625     -0.365149
  C       1.561902      1.548313      0.046554
  C      -1.066188     -0.142498      1.925615
  O      -0.444500     -0.822914      2.699696
  C      -2.567296      0.099017      1.928108
  C      -3.273460     -1.187034      1.403197
  C      -4.643367     -0.801649      0.886516
  H      -7.139019     -1.601103     -1.099269
  H      -3.810940     -0.165545     -0.979724
  H      -4.790198      2.005702      0.918310
  H      -3.862123      2.258236     -0.556937
  H      -2.581372      2.230991      1.682546
  H       0.890472     -1.721162      0.628671
  H       3.226798     -1.925611     -0.084540
  H       5.583664      1.850323      0.106337
  H       7.917426      1.653229     -0.642247
  H       8.622700     -0.270930     -2.037319
  H       6.955405     -1.987125     -2.686005
  H       4.614001     -1.773011     -1.965564
  H       3.419066      2.315819     -0.663061
  H       1.090201      2.520369      0.073390
  H      -2.892679      0.277133      2.953692
  H      -2.692599     -1.633087      0.590157
  H      -3.321224     -1.923377      2.204521
  H      -5.212036     -0.339023      1.707355
46
Coordinates from ORCA-job conjugate_row2_A2_H4 E -1259.406753120881
  O      -5.731871     -3.004822      0.670105
  C      -5.581691     -1.860570      0.328684
  N      -6.321715     -1.203122     -0.653456
  C      -5.868430      0.081455     -0.964077
  O      -6.428211      0.860507     -1.689694
  C      -4.531026      0.213450     -0.249893
  C      -4.044037      1.557289      0.253807
  C      -2.733329      1.363084      1.039123
  C      -1.477935      1.342290      0.170212
  O      -1.306764      1.930012     -0.866303
  N      -0.524483      0.543748      0.820593
  C       0.835147      0.420625      0.398049
  C       1.437589     -0.832438      0.334220
  C       2.757724     -0.944746     -0.074079
  C       3.508550      0.180015     -0.434178
  C       4.917122      0.052730     -0.875182
  C       5.878027      1.001018     -0.503499
  C       7.198341      0.881494     -0.917359
  C       7.588801     -0.189052     -1.714376
  C       6.646492     -1.139180     -2.092451
  C       5.326721     -1.019755     -1.676973
  C       2.881093      1.429062     -0.364267
  C       1.563501      1.553928      0.048437
  C      -1.065576     -0.125821      1.931816
  O      -0.445231     -0.811257      2.702262
  C      -2.568531      0.109444      1.932532
  C      -3.268868     -1.181204      1.412707
  C      -4.638479     -0.803879      0.888401
  H      -7.124143     -1.621182     -1.103499
  H      -3.802570     -0.170302     -0.979075
  H      -4.797871      2.003051      0.907530
  H      -3.868006      2.255029     -0.565150
  H      -2.594620      2.243222      1.677347
  H       0.884658     -1.714399      0.623525
  H       3.218325     -1.923963     -0.089519
  H       5.593420      1.825969      0.137555
  H       7.925700      1.622652     -0.609674
  H       8.617956     -0.282043     -2.037762
  H       6.937729     -1.972658     -2.719751
  H       4.598180     -1.752957     -1.999500
  H       3.422403      2.318146     -0.660400
  H       1.096680      2.528050      0.078328
  H      -2.896389      0.293410      2.955984
  H      -2.684220     -1.632738      0.605509
  H      -3.317583     -1.912953      2.218126
  H      -5.212576     -0.341556      1.705264
46
Coordinates from ORCA-job conjugate_row2_A2_H4 E -1259.406749928066
  O      -5.735301     -3.003470      0.680475
  C      -5.585105     -1.860260      0.336513
  N      -6.325026     -1.204895     -0.647815
  C      -5.870648      0.078753     -0.962766
  O      -6.431034      0.856852     -1.688524
  C      -4.532377      0.211347     -0.249643
  C      -4.043722      1.556486      0.249267
  C      -2.733036      1.363278      1.034372
  C      -1.478230      1.339438      0.164062
  O      -1.305817      1.927111     -0.872016
  N      -0.524237      0.542578      0.816295
  C       0.835863      0.419581      0.393886
  C       1.437611     -0.833587      0.328611
  C       2.757897     -0.945488     -0.079104
  C       3.508935      0.179925     -0.436199
  C       4.918320      0.053173     -0.875398
  C       5.880034      0.996376     -0.493903
  C       7.201068      0.877216     -0.905578
  C       7.590972     -0.187766     -1.710365
  C       6.647349     -1.132643     -2.098390
  C       5.326948     -1.013675     -1.684782
  C       2.882177      1.429066     -0.364718
  C       1.564263      1.553498      0.046830
  C      -1.064926     -0.125761      1.928601
  O      -0.444084     -0.809830      2.699562
  C      -2.568024      0.111522      1.931256
  C      -3.270858     -1.179875      1.417171
  C      -4.640325     -0.802452      0.892178
  H      -7.128305     -1.623444     -1.095868
  H      -3.804539     -0.176152     -0.977386
  H      -4.796909      2.005074      0.901822
  H      -3.867613      2.251590     -0.571889
  H      -2.593622      2.244672      1.670684
  H       0.884639     -1.716109      0.616373
  H       3.218508     -1.924713     -0.096594
  H       5.595629      1.817047      0.152800
  H       7.929305      1.614223     -0.590105
  H       8.620648     -0.280449     -2.032160
  H       6.938002     -1.961599     -2.731927
  H       4.597572     -1.742918     -2.014499
  H       3.424563      2.318413     -0.658326
  H       1.097763      2.527774      0.077634
  H      -2.893420      0.299567      2.954692
  H      -2.687887     -1.636550      0.611649
  H      -3.320098     -1.908116      2.225728
  H      -5.212923     -0.335728      1.707495
46
Coordinates from ORCA-job conjugate_row2_A2_H4 E -1259.406753862503
  O      -5.736452     -3.003088      0.694057
  C      -5.586618     -1.861238      0.346154
  N      -6.326161     -1.209814     -0.641726
  C      -5.871744      0.072976     -0.961922
  O      -6.432108      0.848061     -1.690597
  C      -4.532995      0.207635     -0.249706
  C      -4.043631      1.554834      0.242900
  C      -2.733097      1.364826      1.028835
  C      -1.478246      1.339612      0.158305
  O      -1.305366      1.925064     -0.878811
  N      -0.524104      0.543678      0.812098
  C       0.836076      0.420220      0.389697
  C       1.435309     -0.833713      0.319720
  C       2.755908     -0.945824     -0.087311
  C       3.508671      0.180247     -0.438228
  C       4.918845      0.053337     -0.875703
  C       5.882449      0.989093     -0.481495
  C       7.204207      0.869627     -0.891016
  C       7.592364     -0.187959     -1.706390
  C       6.646396     -1.125215     -2.107151
  C       5.325322     -1.006167     -1.695473
  C       2.884200      1.430143     -0.362186
  C       1.565917      1.554818      0.048405
  C      -1.064189     -0.123212      1.925640
  O      -0.442592     -0.805575      2.697399
  C      -2.567272      0.115929      1.930129
  C      -3.272173     -1.177052      1.423465
  C      -4.641395     -0.801022      0.896804
  H      -7.129520     -1.630127     -1.087988
  H      -3.805302     -0.184262     -0.975250
  H      -4.796899      2.006613      0.893209
  H      -3.867387      2.246280     -0.581308
  H      -2.594406      2.248047      1.662706
  H       0.880906     -1.716697      0.603577
  H       3.215430     -1.925497     -0.109487
  H       5.598983      1.803863      0.173057
  H       7.934227      1.600505     -0.565536
  H       8.622537     -0.280829     -2.026540
  H       6.935647     -1.948170     -2.749111
  H       4.594212     -1.729398     -2.034517
  H       3.429016      2.319625     -0.650967
  H       1.100712      2.529662      0.082464
  H      -2.889894      0.308892      2.953545
  H      -2.690478     -1.639803      0.620464
  H      -3.321965     -1.900655      2.236166
  H      -5.213343     -0.329191      1.709621
46
Coordinates from ORCA-job conjugate_row2_A2_H4 E -1259.406757501256
  O      -5.737176     -3.002742      0.694906
  C      -5.586840     -1.861065      0.346580
  N      -6.326806     -1.209508     -0.640888
  C      -5.872055      0.073027     -0.961633
  O      -6.432829      0.848328     -1.689792
  C      -4.533200      0.207477     -0.249671
  C      -4.043487      1.554612      0.242616
  C      -2.732839      1.364643      1.028469
  C      -1.478309      1.339183      0.157680
  O      -1.305370      1.925051     -0.879229
  N      -0.524015      0.543367      0.811484
  C       0.836125      0.419998      0.389114
  C       1.435426     -0.833923      0.319366
  C       2.756193     -0.945920     -0.087487
  C       3.508765      0.180202     -0.438552
  C       4.919088      0.053393     -0.875767
  C       5.882571      0.988896     -0.480604
  C       7.204473      0.869552     -0.889842
  C       7.592750     -0.187595     -1.705707
  C       6.646884     -1.124572     -2.107338
  C       5.325623     -1.005698     -1.696053
  C       2.884165      1.430051     -0.362943
  C       1.565786      1.554689      0.047642
  C      -1.064037     -0.123435      1.925057
  O      -0.442622     -0.806621      2.696321
  C      -2.567027      0.115915      1.929753
  C      -3.272575     -1.176962      1.423792
  C      -4.641695     -0.800841      0.897062
  H      -7.130718     -1.629543     -1.086412
  H      -3.805735     -0.184864     -0.975223
  H      -4.796660      2.006658      0.892866
  H      -3.867192      2.245827     -0.581792
  H      -2.593830      2.247787      1.662397
  H       0.881099     -1.716912      0.603317
  H       3.215993     -1.925472     -0.109616
  H       5.598786      1.803248      0.174317
  H       7.934485      1.600159     -0.563720
  H       8.623025     -0.280373     -2.025570
  H       6.936328     -1.947164     -2.749685
  H       4.594497     -1.728654     -2.035638
  H       3.429098      2.319417     -0.651866
  H       1.100435      2.529471      0.081447
  H      -2.889088      0.309276      2.953295
  H      -2.691173     -1.640493      0.621009
  H      -3.322621     -1.900143      2.236867
  H      -5.213694     -0.328644      1.709668
